@relation linear_regression_finalmarks-weka.filters.unsupervised.attribute.Discretize-B10-M-1.0-Rfirst-last-precision6

@attribute StudyHours {'\'(-inf-1.8]\'','\'(1.8-2.6]\'','\'(2.6-3.4]\'','\'(3.4-4.2]\'','\'(4.2-5]\'','\'(5-5.8]\'','\'(5.8-6.6]\'','\'(6.6-7.4]\'','\'(7.4-8.2]\'','\'(8.2-inf)\''}
@attribute Attendance {'\'(-inf-63.9]\'','\'(63.9-67.8]\'','\'(67.8-71.7]\'','\'(71.7-75.6]\'','\'(75.6-79.5]\'','\'(79.5-83.4]\'','\'(83.4-87.3]\'','\'(87.3-91.2]\'','\'(91.2-95.1]\'','\'(95.1-inf)\''}
@attribute InternalMarks {'\'(-inf-11.9]\'','\'(11.9-13.8]\'','\'(13.8-15.7]\'','\'(15.7-17.6]\'','\'(17.6-19.5]\'','\'(19.5-21.4]\'','\'(21.4-23.3]\'','\'(23.3-25.2]\'','\'(25.2-27.1]\'','\'(27.1-inf)\''}
@attribute Projects {'\'(-inf-1.3]\'','\'(1.3-1.6]\'','\'(1.6-1.9]\'','\'(1.9-2.2]\'','\'(2.2-2.5]\'','\'(2.5-2.8]\'','\'(2.8-3.1]\'','\'(3.1-3.4]\'','\'(3.4-3.7]\'','\'(3.7-inf)\''}
@attribute FinalMarks numeric

@data
'\'(6.6-7.4]\'','\'(79.5-83.4]\'','\'(23.3-25.2]\'','\'(2.8-3.1]\'',88.93
'\'(3.4-4.2]\'','\'(79.5-83.4]\'','\'(25.2-27.1]\'','\'(2.8-3.1]\'',93.31
'\'(7.4-8.2]\'','\'(63.9-67.8]\'','\'(17.6-19.5]\'','\'(1.9-2.2]\'',62.94
'\'(4.2-5]\'','\'(95.1-inf)\'','\'(13.8-15.7]\'','\'(3.7-inf)\'',83.05
'\'(6.6-7.4]\'','\'(-inf-63.9]\'','\'(25.2-27.1]\'','\'(3.7-inf)\'',87.2
'\'(2.6-3.4]\'','\'(91.2-95.1]\'','\'(21.4-23.3]\'','\'(3.7-inf)\'',71.86
'\'(6.6-7.4]\'','\'(83.4-87.3]\'','\'(11.9-13.8]\'','\'(3.7-inf)\'',75.2
'\'(7.4-8.2]\'','\'(63.9-67.8]\'','\'(17.6-19.5]\'','\'(3.7-inf)\'',78.09
'\'(4.2-5]\'','\'(91.2-95.1]\'','\'(21.4-23.3]\'','\'(1.9-2.2]\'',85.3
'\'(3.4-4.2]\'','\'(91.2-95.1]\'','\'(13.8-15.7]\'','\'(2.8-3.1]\'',76.26
'\'(7.4-8.2]\'','\'(87.3-91.2]\'','\'(11.9-13.8]\'','\'(2.8-3.1]\'',66.35
'\'(7.4-8.2]\'','\'(79.5-83.4]\'','\'(23.3-25.2]\'','\'(1.9-2.2]\'',93.47
'\'(2.6-3.4]\'','\'(71.7-75.6]\'','\'(15.7-17.6]\'','\'(3.7-inf)\'',66.93
'\'(5.8-6.6]\'','\'(87.3-91.2]\'','\'(27.1-inf)\'','\'(1.9-2.2]\'',99.56
'\'(4.2-5]\'','\'(71.7-75.6]\'','\'(21.4-23.3]\'','\'(2.8-3.1]\'',78.47
'\'(1.8-2.6]\'','\'(-inf-63.9]\'','\'(17.6-19.5]\'','\'(-inf-1.3]\'',55.05
'\'(7.4-8.2]\'','\'(95.1-inf)\'','\'(23.3-25.2]\'','\'(1.9-2.2]\'',90.94
'\'(5.8-6.6]\'','\'(79.5-83.4]\'','\'(11.9-13.8]\'','\'(3.7-inf)\'',69.51
'\'(1.8-2.6]\'','\'(71.7-75.6]\'','\'(-inf-11.9]\'','\'(2.8-3.1]\'',51.59
'\'(4.2-5]\'','\'(87.3-91.2]\'','\'(-inf-11.9]\'','\'(2.8-3.1]\'',63.52
'\'(-inf-1.8]\'','\'(75.6-79.5]\'','\'(11.9-13.8]\'','\'(2.8-3.1]\'',49.47
'\'(5.8-6.6]\'','\'(63.9-67.8]\'','\'(25.2-27.1]\'','\'(2.8-3.1]\'',82.63
'\'(8.2-inf)\'','\'(67.8-71.7]\'','\'(21.4-23.3]\'','\'(3.7-inf)\'',91.58
'\'(-inf-1.8]\'','\'(63.9-67.8]\'','\'(27.1-inf)\'','\'(-inf-1.3]\'',72.11
'\'(2.6-3.4]\'','\'(91.2-95.1]\'','\'(25.2-27.1]\'','\'(2.8-3.1]\'',91.65
'\'(6.6-7.4]\'','\'(79.5-83.4]\'','\'(17.6-19.5]\'','\'(1.9-2.2]\'',76.17
'\'(3.4-4.2]\'','\'(79.5-83.4]\'','\'(-inf-11.9]\'','\'(-inf-1.3]\'',48.84
'\'(8.2-inf)\'','\'(75.6-79.5]\'','\'(-inf-11.9]\'','\'(2.8-3.1]\'',71.89
'\'(2.6-3.4]\'','\'(75.6-79.5]\'','\'(11.9-13.8]\'','\'(-inf-1.3]\'',53.03
'\'(4.2-5]\'','\'(91.2-95.1]\'','\'(21.4-23.3]\'','\'(1.9-2.2]\'',81.83
'\'(2.6-3.4]\'','\'(87.3-91.2]\'','\'(-inf-11.9]\'','\'(2.8-3.1]\'',66.09
'\'(6.6-7.4]\'','\'(75.6-79.5]\'','\'(21.4-23.3]\'','\'(1.9-2.2]\'',75.8
'\'(4.2-5]\'','\'(-inf-63.9]\'','\'(23.3-25.2]\'','\'(3.7-inf)\'',81.62
'\'(8.2-inf)\'','\'(-inf-63.9]\'','\'(21.4-23.3]\'','\'(2.8-3.1]\'',82.8
'\'(6.6-7.4]\'','\'(63.9-67.8]\'','\'(27.1-inf)\'','\'(2.8-3.1]\'',92.7
'\'(1.8-2.6]\'','\'(75.6-79.5]\'','\'(11.9-13.8]\'','\'(2.8-3.1]\'',62.48
'\'(3.4-4.2]\'','\'(67.8-71.7]\'','\'(11.9-13.8]\'','\'(2.8-3.1]\'',60.82
'\'(8.2-inf)\'','\'(-inf-63.9]\'','\'(17.6-19.5]\'','\'(3.7-inf)\'',76.5
'\'(1.8-2.6]\'','\'(-inf-63.9]\'','\'(13.8-15.7]\'','\'(2.8-3.1]\'',59.97
'\'(8.2-inf)\'','\'(79.5-83.4]\'','\'(21.4-23.3]\'','\'(-inf-1.3]\'',89.78
'\'(4.2-5]\'','\'(67.8-71.7]\'','\'(-inf-11.9]\'','\'(2.8-3.1]\'',60.16
'\'(1.8-2.6]\'','\'(75.6-79.5]\'','\'(15.7-17.6]\'','\'(3.7-inf)\'',66.86
'\'(3.4-4.2]\'','\'(63.9-67.8]\'','\'(-inf-11.9]\'','\'(2.8-3.1]\'',58.14
'\'(6.6-7.4]\'','\'(95.1-inf)\'','\'(11.9-13.8]\'','\'(-inf-1.3]\'',69.99
'\'(7.4-8.2]\'','\'(95.1-inf)\'','\'(23.3-25.2]\'','\'(3.7-inf)\'',89.41
'\'(2.6-3.4]\'','\'(87.3-91.2]\'','\'(11.9-13.8]\'','\'(3.7-inf)\'',68.4
'\'(-inf-1.8]\'','\'(67.8-71.7]\'','\'(21.4-23.3]\'','\'(-inf-1.3]\'',56.17
'\'(3.4-4.2]\'','\'(91.2-95.1]\'','\'(19.5-21.4]\'','\'(-inf-1.3]\'',76.77
'\'(1.8-2.6]\'','\'(91.2-95.1]\'','\'(21.4-23.3]\'','\'(-inf-1.3]\'',68.71
'\'(7.4-8.2]\'','\'(79.5-83.4]\'','\'(21.4-23.3]\'','\'(-inf-1.3]\'',82.48
'\'(3.4-4.2]\'','\'(79.5-83.4]\'','\'(27.1-inf)\'','\'(-inf-1.3]\'',85.85
'\'(1.8-2.6]\'','\'(75.6-79.5]\'','\'(25.2-27.1]\'','\'(3.7-inf)\'',94.57
'\'(5.8-6.6]\'','\'(67.8-71.7]\'','\'(13.8-15.7]\'','\'(3.7-inf)\'',73.91
'\'(5.8-6.6]\'','\'(87.3-91.2]\'','\'(19.5-21.4]\'','\'(2.8-3.1]\'',88.02
'\'(3.4-4.2]\'','\'(79.5-83.4]\'','\'(-inf-11.9]\'','\'(2.8-3.1]\'',70.96
'\'(5.8-6.6]\'','\'(87.3-91.2]\'','\'(27.1-inf)\'','\'(1.9-2.2]\'',93.75
'\'(1.8-2.6]\'','\'(75.6-79.5]\'','\'(27.1-inf)\'','\'(2.8-3.1]\'',82.73
'\'(1.8-2.6]\'','\'(75.6-79.5]\'','\'(13.8-15.7]\'','\'(2.8-3.1]\'',54.97
'\'(3.4-4.2]\'','\'(71.7-75.6]\'','\'(27.1-inf)\'','\'(-inf-1.3]\'',78.82
'\'(7.4-8.2]\'','\'(67.8-71.7]\'','\'(-inf-11.9]\'','\'(-inf-1.3]\'',56.78
'\'(6.6-7.4]\'','\'(95.1-inf)\'','\'(17.6-19.5]\'','\'(2.8-3.1]\'',82.69
'\'(8.2-inf)\'','\'(-inf-63.9]\'','\'(-inf-11.9]\'','\'(1.9-2.2]\'',72.15
'\'(7.4-8.2]\'','\'(83.4-87.3]\'','\'(19.5-21.4]\'','\'(-inf-1.3]\'',79.27
'\'(4.2-5]\'','\'(95.1-inf)\'','\'(25.2-27.1]\'','\'(2.8-3.1]\'',88.02
'\'(1.8-2.6]\'','\'(67.8-71.7]\'','\'(23.3-25.2]\'','\'(2.8-3.1]\'',79.77
'\'(4.2-5]\'','\'(79.5-83.4]\'','\'(17.6-19.5]\'','\'(3.7-inf)\'',81.08
'\'(7.4-8.2]\'','\'(-inf-63.9]\'','\'(27.1-inf)\'','\'(1.9-2.2]\'',91.94
'\'(8.2-inf)\'','\'(83.4-87.3]\'','\'(17.6-19.5]\'','\'(3.7-inf)\'',75.47
'\'(8.2-inf)\'','\'(87.3-91.2]\'','\'(11.9-13.8]\'','\'(1.9-2.2]\'',82.14
'\'(-inf-1.8]\'','\'(91.2-95.1]\'','\'(17.6-19.5]\'','\'(-inf-1.3]\'',61.61
'\'(8.2-inf)\'','\'(79.5-83.4]\'','\'(21.4-23.3]\'','\'(1.9-2.2]\'',90.99
'\'(6.6-7.4]\'','\'(95.1-inf)\'','\'(27.1-inf)\'','\'(2.8-3.1]\'',100
'\'(8.2-inf)\'','\'(67.8-71.7]\'','\'(15.7-17.6]\'','\'(2.8-3.1]\'',86.28
'\'(7.4-8.2]\'','\'(63.9-67.8]\'','\'(23.3-25.2]\'','\'(1.9-2.2]\'',78.11
'\'(-inf-1.8]\'','\'(75.6-79.5]\'','\'(23.3-25.2]\'','\'(1.9-2.2]\'',65.38
'\'(7.4-8.2]\'','\'(79.5-83.4]\'','\'(-inf-11.9]\'','\'(1.9-2.2]\'',72.15
'\'(7.4-8.2]\'','\'(91.2-95.1]\'','\'(11.9-13.8]\'','\'(3.7-inf)\'',79.71
'\'(2.6-3.4]\'','\'(95.1-inf)\'','\'(11.9-13.8]\'','\'(1.9-2.2]\'',62.1
'\'(-inf-1.8]\'','\'(91.2-95.1]\'','\'(15.7-17.6]\'','\'(-inf-1.3]\'',64.51
'\'(7.4-8.2]\'','\'(75.6-79.5]\'','\'(15.7-17.6]\'','\'(3.7-inf)\'',78.49
'\'(2.6-3.4]\'','\'(95.1-inf)\'','\'(25.2-27.1]\'','\'(3.7-inf)\'',92.31
'\'(2.6-3.4]\'','\'(83.4-87.3]\'','\'(13.8-15.7]\'','\'(1.9-2.2]\'',62.53
'\'(-inf-1.8]\'','\'(95.1-inf)\'','\'(15.7-17.6]\'','\'(-inf-1.3]\'',66.21
'\'(4.2-5]\'','\'(67.8-71.7]\'','\'(27.1-inf)\'','\'(3.7-inf)\'',85.33
'\'(6.6-7.4]\'','\'(79.5-83.4]\'','\'(27.1-inf)\'','\'(2.8-3.1]\'',100
'\'(8.2-inf)\'','\'(79.5-83.4]\'','\'(11.9-13.8]\'','\'(3.7-inf)\'',80.29
'\'(6.6-7.4]\'','\'(79.5-83.4]\'','\'(13.8-15.7]\'','\'(1.9-2.2]\'',73.73
'\'(8.2-inf)\'','\'(83.4-87.3]\'','\'(15.7-17.6]\'','\'(-inf-1.3]\'',69.71
'\'(7.4-8.2]\'','\'(87.3-91.2]\'','\'(25.2-27.1]\'','\'(1.9-2.2]\'',100
'\'(1.8-2.6]\'','\'(63.9-67.8]\'','\'(13.8-15.7]\'','\'(2.8-3.1]\'',56.93
'\'(-inf-1.8]\'','\'(83.4-87.3]\'','\'(27.1-inf)\'','\'(2.8-3.1]\'',87.44
'\'(6.6-7.4]\'','\'(95.1-inf)\'','\'(11.9-13.8]\'','\'(2.8-3.1]\'',72.59
'\'(6.6-7.4]\'','\'(91.2-95.1]\'','\'(15.7-17.6]\'','\'(1.9-2.2]\'',77.2
'\'(7.4-8.2]\'','\'(67.8-71.7]\'','\'(21.4-23.3]\'','\'(3.7-inf)\'',88.29
'\'(4.2-5]\'','\'(63.9-67.8]\'','\'(15.7-17.6]\'','\'(1.9-2.2]\'',49.7
'\'(2.6-3.4]\'','\'(67.8-71.7]\'','\'(13.8-15.7]\'','\'(-inf-1.3]\'',58.11
'\'(7.4-8.2]\'','\'(75.6-79.5]\'','\'(13.8-15.7]\'','\'(3.7-inf)\'',84.63
'\'(5.8-6.6]\'','\'(83.4-87.3]\'','\'(-inf-11.9]\'','\'(2.8-3.1]\'',69.2
'\'(2.6-3.4]\'','\'(79.5-83.4]\'','\'(13.8-15.7]\'','\'(1.9-2.2]\'',57.71
'\'(-inf-1.8]\'','\'(83.4-87.3]\'','\'(23.3-25.2]\'','\'(2.8-3.1]\'',79.85
'\'(2.6-3.4]\'','\'(-inf-63.9]\'','\'(17.6-19.5]\'','\'(2.8-3.1]\'',70.6
'\'(4.2-5]\'','\'(-inf-63.9]\'','\'(15.7-17.6]\'','\'(-inf-1.3]\'',62.06
'\'(2.6-3.4]\'','\'(91.2-95.1]\'','\'(13.8-15.7]\'','\'(3.7-inf)\'',70.13
'\'(-inf-1.8]\'','\'(83.4-87.3]\'','\'(-inf-11.9]\'','\'(-inf-1.3]\'',48.79
'\'(4.2-5]\'','\'(87.3-91.2]\'','\'(21.4-23.3]\'','\'(-inf-1.3]\'',75.67
'\'(6.6-7.4]\'','\'(79.5-83.4]\'','\'(25.2-27.1]\'','\'(-inf-1.3]\'',89.49
'\'(6.6-7.4]\'','\'(67.8-71.7]\'','\'(21.4-23.3]\'','\'(2.8-3.1]\'',73.46
'\'(8.2-inf)\'','\'(95.1-inf)\'','\'(25.2-27.1]\'','\'(-inf-1.3]\'',93.84
'\'(2.6-3.4]\'','\'(67.8-71.7]\'','\'(13.8-15.7]\'','\'(-inf-1.3]\'',63.48
'\'(6.6-7.4]\'','\'(91.2-95.1]\'','\'(21.4-23.3]\'','\'(3.7-inf)\'',98.67
'\'(-inf-1.8]\'','\'(95.1-inf)\'','\'(11.9-13.8]\'','\'(3.7-inf)\'',58.51
'\'(3.4-4.2]\'','\'(95.1-inf)\'','\'(25.2-27.1]\'','\'(-inf-1.3]\'',78.54
'\'(3.4-4.2]\'','\'(91.2-95.1]\'','\'(11.9-13.8]\'','\'(3.7-inf)\'',67.85
'\'(4.2-5]\'','\'(91.2-95.1]\'','\'(25.2-27.1]\'','\'(3.7-inf)\'',96.36
'\'(6.6-7.4]\'','\'(79.5-83.4]\'','\'(19.5-21.4]\'','\'(-inf-1.3]\'',67.26
'\'(6.6-7.4]\'','\'(79.5-83.4]\'','\'(27.1-inf)\'','\'(2.8-3.1]\'',94.03
'\'(3.4-4.2]\'','\'(63.9-67.8]\'','\'(11.9-13.8]\'','\'(-inf-1.3]\'',51.83
'\'(6.6-7.4]\'','\'(91.2-95.1]\'','\'(-inf-11.9]\'','\'(3.7-inf)\'',79.73
'\'(2.6-3.4]\'','\'(91.2-95.1]\'','\'(27.1-inf)\'','\'(2.8-3.1]\'',82.12
'\'(5.8-6.6]\'','\'(75.6-79.5]\'','\'(23.3-25.2]\'','\'(1.9-2.2]\'',83.66
'\'(1.8-2.6]\'','\'(75.6-79.5]\'','\'(25.2-27.1]\'','\'(2.8-3.1]\'',78.43
'\'(8.2-inf)\'','\'(91.2-95.1]\'','\'(15.7-17.6]\'','\'(3.7-inf)\'',94.05
'\'(4.2-5]\'','\'(75.6-79.5]\'','\'(11.9-13.8]\'','\'(2.8-3.1]\'',66.29
'\'(5.8-6.6]\'','\'(91.2-95.1]\'','\'(17.6-19.5]\'','\'(-inf-1.3]\'',71.47
'\'(3.4-4.2]\'','\'(67.8-71.7]\'','\'(27.1-inf)\'','\'(1.9-2.2]\'',86.17
'\'(6.6-7.4]\'','\'(83.4-87.3]\'','\'(13.8-15.7]\'','\'(1.9-2.2]\'',70.06
'\'(8.2-inf)\'','\'(-inf-63.9]\'','\'(17.6-19.5]\'','\'(1.9-2.2]\'',79.8
'\'(6.6-7.4]\'','\'(67.8-71.7]\'','\'(17.6-19.5]\'','\'(3.7-inf)\'',76.71
'\'(-inf-1.8]\'','\'(67.8-71.7]\'','\'(21.4-23.3]\'','\'(3.7-inf)\'',75.67
'\'(-inf-1.8]\'','\'(95.1-inf)\'','\'(25.2-27.1]\'','\'(1.9-2.2]\'',82.88
'\'(8.2-inf)\'','\'(75.6-79.5]\'','\'(17.6-19.5]\'','\'(2.8-3.1]\'',96.6
'\'(8.2-inf)\'','\'(-inf-63.9]\'','\'(25.2-27.1]\'','\'(1.9-2.2]\'',84.74
'\'(3.4-4.2]\'','\'(83.4-87.3]\'','\'(17.6-19.5]\'','\'(2.8-3.1]\'',74.61
'\'(8.2-inf)\'','\'(95.1-inf)\'','\'(17.6-19.5]\'','\'(2.8-3.1]\'',84.8
'\'(2.6-3.4]\'','\'(83.4-87.3]\'','\'(-inf-11.9]\'','\'(3.7-inf)\'',61.21
'\'(6.6-7.4]\'','\'(95.1-inf)\'','\'(-inf-11.9]\'','\'(2.8-3.1]\'',58.89
'\'(5.8-6.6]\'','\'(91.2-95.1]\'','\'(23.3-25.2]\'','\'(1.9-2.2]\'',90.03
'\'(7.4-8.2]\'','\'(-inf-63.9]\'','\'(-inf-11.9]\'','\'(3.7-inf)\'',71.31
'\'(8.2-inf)\'','\'(95.1-inf)\'','\'(17.6-19.5]\'','\'(-inf-1.3]\'',84.78
'\'(4.2-5]\'','\'(87.3-91.2]\'','\'(25.2-27.1]\'','\'(-inf-1.3]\'',78.13
'\'(-inf-1.8]\'','\'(95.1-inf)\'','\'(15.7-17.6]\'','\'(3.7-inf)\'',67.59
'\'(2.6-3.4]\'','\'(91.2-95.1]\'','\'(19.5-21.4]\'','\'(1.9-2.2]\'',61.75
'\'(7.4-8.2]\'','\'(67.8-71.7]\'','\'(-inf-11.9]\'','\'(-inf-1.3]\'',66.19
'\'(5.8-6.6]\'','\'(75.6-79.5]\'','\'(15.7-17.6]\'','\'(-inf-1.3]\'',63.37
'\'(7.4-8.2]\'','\'(95.1-inf)\'','\'(15.7-17.6]\'','\'(2.8-3.1]\'',82.66
'\'(8.2-inf)\'','\'(75.6-79.5]\'','\'(25.2-27.1]\'','\'(2.8-3.1]\'',91.53
'\'(3.4-4.2]\'','\'(67.8-71.7]\'','\'(23.3-25.2]\'','\'(1.9-2.2]\'',82.14
'\'(-inf-1.8]\'','\'(67.8-71.7]\'','\'(25.2-27.1]\'','\'(3.7-inf)\'',77.73
'\'(-inf-1.8]\'','\'(71.7-75.6]\'','\'(21.4-23.3]\'','\'(1.9-2.2]\'',71.54
'\'(3.4-4.2]\'','\'(79.5-83.4]\'','\'(27.1-inf)\'','\'(3.7-inf)\'',92.63
'\'(6.6-7.4]\'','\'(75.6-79.5]\'','\'(13.8-15.7]\'','\'(-inf-1.3]\'',72.7
'\'(1.8-2.6]\'','\'(63.9-67.8]\'','\'(19.5-21.4]\'','\'(2.8-3.1]\'',66.9
'\'(2.6-3.4]\'','\'(87.3-91.2]\'','\'(-inf-11.9]\'','\'(1.9-2.2]\'',67.35
'\'(-inf-1.8]\'','\'(79.5-83.4]\'','\'(13.8-15.7]\'','\'(1.9-2.2]\'',47.07
'\'(4.2-5]\'','\'(75.6-79.5]\'','\'(15.7-17.6]\'','\'(3.7-inf)\'',77.59
'\'(-inf-1.8]\'','\'(79.5-83.4]\'','\'(21.4-23.3]\'','\'(3.7-inf)\'',70.27
'\'(7.4-8.2]\'','\'(95.1-inf)\'','\'(15.7-17.6]\'','\'(1.9-2.2]\'',77.84
'\'(-inf-1.8]\'','\'(71.7-75.6]\'','\'(19.5-21.4]\'','\'(3.7-inf)\'',72.35
'\'(-inf-1.8]\'','\'(63.9-67.8]\'','\'(-inf-11.9]\'','\'(1.9-2.2]\'',49.31
'\'(1.8-2.6]\'','\'(63.9-67.8]\'','\'(21.4-23.3]\'','\'(1.9-2.2]\'',70.13
'\'(1.8-2.6]\'','\'(83.4-87.3]\'','\'(27.1-inf)\'','\'(1.9-2.2]\'',74.27
'\'(5.8-6.6]\'','\'(75.6-79.5]\'','\'(11.9-13.8]\'','\'(-inf-1.3]\'',67.85
'\'(6.6-7.4]\'','\'(83.4-87.3]\'','\'(25.2-27.1]\'','\'(3.7-inf)\'',88.7
'\'(4.2-5]\'','\'(67.8-71.7]\'','\'(13.8-15.7]\'','\'(2.8-3.1]\'',60.96
'\'(-inf-1.8]\'','\'(71.7-75.6]\'','\'(27.1-inf)\'','\'(2.8-3.1]\'',83.39
'\'(-inf-1.8]\'','\'(83.4-87.3]\'','\'(15.7-17.6]\'','\'(3.7-inf)\'',66.57
'\'(2.6-3.4]\'','\'(83.4-87.3]\'','\'(21.4-23.3]\'','\'(1.9-2.2]\'',77.54
'\'(1.8-2.6]\'','\'(87.3-91.2]\'','\'(11.9-13.8]\'','\'(2.8-3.1]\'',52.52
'\'(4.2-5]\'','\'(67.8-71.7]\'','\'(19.5-21.4]\'','\'(2.8-3.1]\'',74.62
'\'(5.8-6.6]\'','\'(71.7-75.6]\'','\'(27.1-inf)\'','\'(3.7-inf)\'',94.09
'\'(6.6-7.4]\'','\'(63.9-67.8]\'','\'(23.3-25.2]\'','\'(2.8-3.1]\'',79.75
'\'(3.4-4.2]\'','\'(75.6-79.5]\'','\'(27.1-inf)\'','\'(1.9-2.2]\'',72.43
'\'(6.6-7.4]\'','\'(79.5-83.4]\'','\'(15.7-17.6]\'','\'(3.7-inf)\'',76.54
'\'(7.4-8.2]\'','\'(83.4-87.3]\'','\'(27.1-inf)\'','\'(1.9-2.2]\'',93.31
'\'(-inf-1.8]\'','\'(79.5-83.4]\'','\'(27.1-inf)\'','\'(2.8-3.1]\'',78.66
'\'(5.8-6.6]\'','\'(79.5-83.4]\'','\'(19.5-21.4]\'','\'(2.8-3.1]\'',69.62
'\'(7.4-8.2]\'','\'(63.9-67.8]\'','\'(13.8-15.7]\'','\'(1.9-2.2]\'',74.77
'\'(4.2-5]\'','\'(71.7-75.6]\'','\'(13.8-15.7]\'','\'(-inf-1.3]\'',57.21
'\'(3.4-4.2]\'','\'(71.7-75.6]\'','\'(15.7-17.6]\'','\'(2.8-3.1]\'',67.09
'\'(1.8-2.6]\'','\'(63.9-67.8]\'','\'(17.6-19.5]\'','\'(-inf-1.3]\'',47.75
'\'(5.8-6.6]\'','\'(67.8-71.7]\'','\'(13.8-15.7]\'','\'(2.8-3.1]\'',75.37
'\'(5.8-6.6]\'','\'(63.9-67.8]\'','\'(23.3-25.2]\'','\'(-inf-1.3]\'',73.27
'\'(-inf-1.8]\'','\'(79.5-83.4]\'','\'(23.3-25.2]\'','\'(-inf-1.3]\'',72.09
'\'(8.2-inf)\'','\'(87.3-91.2]\'','\'(25.2-27.1]\'','\'(-inf-1.3]\'',96.5
'\'(5.8-6.6]\'','\'(75.6-79.5]\'','\'(15.7-17.6]\'','\'(1.9-2.2]\'',67.22
'\'(2.6-3.4]\'','\'(87.3-91.2]\'','\'(15.7-17.6]\'','\'(-inf-1.3]\'',70.82
'\'(3.4-4.2]\'','\'(87.3-91.2]\'','\'(17.6-19.5]\'','\'(-inf-1.3]\'',58.89
'\'(3.4-4.2]\'','\'(95.1-inf)\'','\'(-inf-11.9]\'','\'(-inf-1.3]\'',64.15
'\'(2.6-3.4]\'','\'(91.2-95.1]\'','\'(23.3-25.2]\'','\'(2.8-3.1]\'',90.56
'\'(2.6-3.4]\'','\'(75.6-79.5]\'','\'(25.2-27.1]\'','\'(-inf-1.3]\'',74.2
'\'(2.6-3.4]\'','\'(95.1-inf)\'','\'(11.9-13.8]\'','\'(2.8-3.1]\'',71.49
'\'(3.4-4.2]\'','\'(75.6-79.5]\'','\'(25.2-27.1]\'','\'(-inf-1.3]\'',86.47
'\'(6.6-7.4]\'','\'(71.7-75.6]\'','\'(11.9-13.8]\'','\'(-inf-1.3]\'',61.63
'\'(3.4-4.2]\'','\'(87.3-91.2]\'','\'(11.9-13.8]\'','\'(1.9-2.2]\'',62.81
'\'(8.2-inf)\'','\'(79.5-83.4]\'','\'(21.4-23.3]\'','\'(2.8-3.1]\'',85.41
'\'(-inf-1.8]\'','\'(91.2-95.1]\'','\'(17.6-19.5]\'','\'(-inf-1.3]\'',62.15
'\'(7.4-8.2]\'','\'(91.2-95.1]\'','\'(17.6-19.5]\'','\'(2.8-3.1]\'',79.32
'\'(6.6-7.4]\'','\'(-inf-63.9]\'','\'(25.2-27.1]\'','\'(2.8-3.1]\'',81.1
'\'(1.8-2.6]\'','\'(95.1-inf)\'','\'(17.6-19.5]\'','\'(3.7-inf)\'',82.29
'\'(7.4-8.2]\'','\'(95.1-inf)\'','\'(11.9-13.8]\'','\'(1.9-2.2]\'',71.25
'\'(-inf-1.8]\'','\'(83.4-87.3]\'','\'(19.5-21.4]\'','\'(1.9-2.2]\'',70.29
'\'(8.2-inf)\'','\'(79.5-83.4]\'','\'(15.7-17.6]\'','\'(1.9-2.2]\'',78.29
'\'(8.2-inf)\'','\'(95.1-inf)\'','\'(-inf-11.9]\'','\'(3.7-inf)\'',86.39
'\'(1.8-2.6]\'','\'(71.7-75.6]\'','\'(21.4-23.3]\'','\'(3.7-inf)\'',71.68
'\'(6.6-7.4]\'','\'(-inf-63.9]\'','\'(23.3-25.2]\'','\'(1.9-2.2]\'',82.31
'\'(2.6-3.4]\'','\'(87.3-91.2]\'','\'(-inf-11.9]\'','\'(3.7-inf)\'',67.86
'\'(6.6-7.4]\'','\'(79.5-83.4]\'','\'(19.5-21.4]\'','\'(3.7-inf)\'',90.75
'\'(8.2-inf)\'','\'(83.4-87.3]\'','\'(17.6-19.5]\'','\'(3.7-inf)\'',84.11
'\'(3.4-4.2]\'','\'(71.7-75.6]\'','\'(23.3-25.2]\'','\'(1.9-2.2]\'',72.51
'\'(-inf-1.8]\'','\'(75.6-79.5]\'','\'(25.2-27.1]\'','\'(1.9-2.2]\'',68.79
'\'(1.8-2.6]\'','\'(91.2-95.1]\'','\'(15.7-17.6]\'','\'(1.9-2.2]\'',78.28
'\'(-inf-1.8]\'','\'(71.7-75.6]\'','\'(25.2-27.1]\'','\'(3.7-inf)\'',86.92
'\'(4.2-5]\'','\'(-inf-63.9]\'','\'(17.6-19.5]\'','\'(1.9-2.2]\'',65.09
'\'(4.2-5]\'','\'(91.2-95.1]\'','\'(15.7-17.6]\'','\'(3.7-inf)\'',88.36
'\'(6.6-7.4]\'','\'(91.2-95.1]\'','\'(21.4-23.3]\'','\'(-inf-1.3]\'',83.39
'\'(8.2-inf)\'','\'(87.3-91.2]\'','\'(25.2-27.1]\'','\'(3.7-inf)\'',100
'\'(8.2-inf)\'','\'(71.7-75.6]\'','\'(27.1-inf)\'','\'(2.8-3.1]\'',95.65
'\'(2.6-3.4]\'','\'(71.7-75.6]\'','\'(27.1-inf)\'','\'(1.9-2.2]\'',83.09
'\'(2.6-3.4]\'','\'(75.6-79.5]\'','\'(19.5-21.4]\'','\'(1.9-2.2]\'',72.06
'\'(2.6-3.4]\'','\'(87.3-91.2]\'','\'(27.1-inf)\'','\'(2.8-3.1]\'',85.68
'\'(3.4-4.2]\'','\'(87.3-91.2]\'','\'(21.4-23.3]\'','\'(3.7-inf)\'',90.26
'\'(7.4-8.2]\'','\'(91.2-95.1]\'','\'(25.2-27.1]\'','\'(-inf-1.3]\'',94.28
'\'(5.8-6.6]\'','\'(95.1-inf)\'','\'(11.9-13.8]\'','\'(2.8-3.1]\'',77.04
'\'(7.4-8.2]\'','\'(87.3-91.2]\'','\'(15.7-17.6]\'','\'(2.8-3.1]\'',80.5
'\'(-inf-1.8]\'','\'(87.3-91.2]\'','\'(25.2-27.1]\'','\'(3.7-inf)\'',77.87
'\'(7.4-8.2]\'','\'(71.7-75.6]\'','\'(19.5-21.4]\'','\'(1.9-2.2]\'',88.55
'\'(3.4-4.2]\'','\'(67.8-71.7]\'','\'(17.6-19.5]\'','\'(3.7-inf)\'',69.39
'\'(-inf-1.8]\'','\'(87.3-91.2]\'','\'(23.3-25.2]\'','\'(2.8-3.1]\'',79.02
'\'(7.4-8.2]\'','\'(83.4-87.3]\'','\'(25.2-27.1]\'','\'(2.8-3.1]\'',97.38
'\'(3.4-4.2]\'','\'(95.1-inf)\'','\'(21.4-23.3]\'','\'(1.9-2.2]\'',82.19
'\'(5.8-6.6]\'','\'(75.6-79.5]\'','\'(15.7-17.6]\'','\'(1.9-2.2]\'',75.78
'\'(7.4-8.2]\'','\'(63.9-67.8]\'','\'(21.4-23.3]\'','\'(1.9-2.2]\'',85.07
'\'(3.4-4.2]\'','\'(-inf-63.9]\'','\'(15.7-17.6]\'','\'(3.7-inf)\'',65.38
'\'(2.6-3.4]\'','\'(87.3-91.2]\'','\'(21.4-23.3]\'','\'(1.9-2.2]\'',85.33
'\'(8.2-inf)\'','\'(-inf-63.9]\'','\'(15.7-17.6]\'','\'(2.8-3.1]\'',71.77
'\'(2.6-3.4]\'','\'(71.7-75.6]\'','\'(19.5-21.4]\'','\'(2.8-3.1]\'',73.58
'\'(8.2-inf)\'','\'(87.3-91.2]\'','\'(19.5-21.4]\'','\'(-inf-1.3]\'',80.26
'\'(1.8-2.6]\'','\'(-inf-63.9]\'','\'(19.5-21.4]\'','\'(3.7-inf)\'',64.53
'\'(1.8-2.6]\'','\'(75.6-79.5]\'','\'(21.4-23.3]\'','\'(-inf-1.3]\'',72.82
'\'(1.8-2.6]\'','\'(95.1-inf)\'','\'(25.2-27.1]\'','\'(2.8-3.1]\'',100
'\'(5.8-6.6]\'','\'(83.4-87.3]\'','\'(-inf-11.9]\'','\'(-inf-1.3]\'',59.39
'\'(2.6-3.4]\'','\'(-inf-63.9]\'','\'(23.3-25.2]\'','\'(2.8-3.1]\'',78.58
'\'(8.2-inf)\'','\'(71.7-75.6]\'','\'(27.1-inf)\'','\'(-inf-1.3]\'',89.57
'\'(3.4-4.2]\'','\'(67.8-71.7]\'','\'(25.2-27.1]\'','\'(1.9-2.2]\'',78.85
'\'(-inf-1.8]\'','\'(71.7-75.6]\'','\'(23.3-25.2]\'','\'(-inf-1.3]\'',76.49
'\'(3.4-4.2]\'','\'(79.5-83.4]\'','\'(27.1-inf)\'','\'(1.9-2.2]\'',79.53
'\'(-inf-1.8]\'','\'(-inf-63.9]\'','\'(19.5-21.4]\'','\'(1.9-2.2]\'',55.71
'\'(4.2-5]\'','\'(67.8-71.7]\'','\'(21.4-23.3]\'','\'(3.7-inf)\'',78.86
'\'(3.4-4.2]\'','\'(95.1-inf)\'','\'(19.5-21.4]\'','\'(1.9-2.2]\'',80.12
'\'(7.4-8.2]\'','\'(95.1-inf)\'','\'(13.8-15.7]\'','\'(1.9-2.2]\'',78.12
'\'(7.4-8.2]\'','\'(63.9-67.8]\'','\'(-inf-11.9]\'','\'(-inf-1.3]\'',59.8
'\'(6.6-7.4]\'','\'(95.1-inf)\'','\'(11.9-13.8]\'','\'(2.8-3.1]\'',74.07
'\'(2.6-3.4]\'','\'(79.5-83.4]\'','\'(27.1-inf)\'','\'(3.7-inf)\'',91.83
'\'(-inf-1.8]\'','\'(67.8-71.7]\'','\'(15.7-17.6]\'','\'(1.9-2.2]\'',42.43
'\'(-inf-1.8]\'','\'(71.7-75.6]\'','\'(19.5-21.4]\'','\'(3.7-inf)\'',66.35
'\'(2.6-3.4]\'','\'(91.2-95.1]\'','\'(23.3-25.2]\'','\'(-inf-1.3]\'',76.93
'\'(5.8-6.6]\'','\'(83.4-87.3]\'','\'(13.8-15.7]\'','\'(1.9-2.2]\'',71.72
'\'(6.6-7.4]\'','\'(63.9-67.8]\'','\'(23.3-25.2]\'','\'(-inf-1.3]\'',84.75
'\'(5.8-6.6]\'','\'(-inf-63.9]\'','\'(15.7-17.6]\'','\'(3.7-inf)\'',66.97
'\'(5.8-6.6]\'','\'(63.9-67.8]\'','\'(17.6-19.5]\'','\'(-inf-1.3]\'',75.39
'\'(5.8-6.6]\'','\'(75.6-79.5]\'','\'(23.3-25.2]\'','\'(3.7-inf)\'',85.94
'\'(2.6-3.4]\'','\'(87.3-91.2]\'','\'(15.7-17.6]\'','\'(-inf-1.3]\'',64.75
'\'(5.8-6.6]\'','\'(67.8-71.7]\'','\'(-inf-11.9]\'','\'(3.7-inf)\'',65.61
'\'(7.4-8.2]\'','\'(91.2-95.1]\'','\'(19.5-21.4]\'','\'(2.8-3.1]\'',86.88
'\'(1.8-2.6]\'','\'(83.4-87.3]\'','\'(13.8-15.7]\'','\'(-inf-1.3]\'',63.55
'\'(4.2-5]\'','\'(-inf-63.9]\'','\'(11.9-13.8]\'','\'(-inf-1.3]\'',52.08
'\'(-inf-1.8]\'','\'(63.9-67.8]\'','\'(-inf-11.9]\'','\'(2.8-3.1]\'',47.05
'\'(-inf-1.8]\'','\'(63.9-67.8]\'','\'(11.9-13.8]\'','\'(2.8-3.1]\'',58.46
'\'(4.2-5]\'','\'(63.9-67.8]\'','\'(15.7-17.6]\'','\'(-inf-1.3]\'',58.38
'\'(2.6-3.4]\'','\'(79.5-83.4]\'','\'(11.9-13.8]\'','\'(2.8-3.1]\'',62.34
'\'(3.4-4.2]\'','\'(67.8-71.7]\'','\'(17.6-19.5]\'','\'(1.9-2.2]\'',58.6
'\'(2.6-3.4]\'','\'(91.2-95.1]\'','\'(-inf-11.9]\'','\'(3.7-inf)\'',74.8
'\'(-inf-1.8]\'','\'(75.6-79.5]\'','\'(19.5-21.4]\'','\'(3.7-inf)\'',76.73
'\'(-inf-1.8]\'','\'(91.2-95.1]\'','\'(17.6-19.5]\'','\'(3.7-inf)\'',87.45
'\'(4.2-5]\'','\'(75.6-79.5]\'','\'(21.4-23.3]\'','\'(1.9-2.2]\'',84.29
'\'(5.8-6.6]\'','\'(75.6-79.5]\'','\'(15.7-17.6]\'','\'(2.8-3.1]\'',65.65
'\'(2.6-3.4]\'','\'(79.5-83.4]\'','\'(-inf-11.9]\'','\'(2.8-3.1]\'',63.24
'\'(8.2-inf)\'','\'(-inf-63.9]\'','\'(17.6-19.5]\'','\'(-inf-1.3]\'',66.51
'\'(4.2-5]\'','\'(87.3-91.2]\'','\'(23.3-25.2]\'','\'(2.8-3.1]\'',95.19
'\'(7.4-8.2]\'','\'(91.2-95.1]\'','\'(21.4-23.3]\'','\'(-inf-1.3]\'',79.19
'\'(-inf-1.8]\'','\'(95.1-inf)\'','\'(17.6-19.5]\'','\'(1.9-2.2]\'',62.35
'\'(4.2-5]\'','\'(71.7-75.6]\'','\'(27.1-inf)\'','\'(3.7-inf)\'',82.05
'\'(2.6-3.4]\'','\'(83.4-87.3]\'','\'(11.9-13.8]\'','\'(3.7-inf)\'',63.26
'\'(-inf-1.8]\'','\'(67.8-71.7]\'','\'(17.6-19.5]\'','\'(3.7-inf)\'',62.45
'\'(3.4-4.2]\'','\'(-inf-63.9]\'','\'(19.5-21.4]\'','\'(2.8-3.1]\'',64.59
'\'(4.2-5]\'','\'(71.7-75.6]\'','\'(25.2-27.1]\'','\'(-inf-1.3]\'',88.35
'\'(6.6-7.4]\'','\'(95.1-inf)\'','\'(21.4-23.3]\'','\'(-inf-1.3]\'',87.45
'\'(-inf-1.8]\'','\'(91.2-95.1]\'','\'(21.4-23.3]\'','\'(1.9-2.2]\'',76.46
'\'(2.6-3.4]\'','\'(67.8-71.7]\'','\'(-inf-11.9]\'','\'(2.8-3.1]\'',63.95
'\'(1.8-2.6]\'','\'(-inf-63.9]\'','\'(27.1-inf)\'','\'(1.9-2.2]\'',77.38
'\'(8.2-inf)\'','\'(83.4-87.3]\'','\'(19.5-21.4]\'','\'(-inf-1.3]\'',77.86
'\'(5.8-6.6]\'','\'(87.3-91.2]\'','\'(23.3-25.2]\'','\'(-inf-1.3]\'',74.9
'\'(2.6-3.4]\'','\'(67.8-71.7]\'','\'(27.1-inf)\'','\'(3.7-inf)\'',79.37
'\'(7.4-8.2]\'','\'(-inf-63.9]\'','\'(13.8-15.7]\'','\'(2.8-3.1]\'',77.13
'\'(7.4-8.2]\'','\'(83.4-87.3]\'','\'(27.1-inf)\'','\'(-inf-1.3]\'',84.42
'\'(1.8-2.6]\'','\'(91.2-95.1]\'','\'(13.8-15.7]\'','\'(3.7-inf)\'',69.67
'\'(5.8-6.6]\'','\'(67.8-71.7]\'','\'(11.9-13.8]\'','\'(2.8-3.1]\'',70.47
'\'(6.6-7.4]\'','\'(67.8-71.7]\'','\'(23.3-25.2]\'','\'(1.9-2.2]\'',81.83
'\'(1.8-2.6]\'','\'(71.7-75.6]\'','\'(11.9-13.8]\'','\'(2.8-3.1]\'',60.19
'\'(1.8-2.6]\'','\'(95.1-inf)\'','\'(27.1-inf)\'','\'(2.8-3.1]\'',92.98
'\'(-inf-1.8]\'','\'(83.4-87.3]\'','\'(17.6-19.5]\'','\'(-inf-1.3]\'',65.1
'\'(7.4-8.2]\'','\'(63.9-67.8]\'','\'(11.9-13.8]\'','\'(-inf-1.3]\'',68.75
'\'(-inf-1.8]\'','\'(67.8-71.7]\'','\'(13.8-15.7]\'','\'(2.8-3.1]\'',51.3
'\'(8.2-inf)\'','\'(91.2-95.1]\'','\'(13.8-15.7]\'','\'(-inf-1.3]\'',77.1
'\'(5.8-6.6]\'','\'(79.5-83.4]\'','\'(15.7-17.6]\'','\'(-inf-1.3]\'',60.81
'\'(6.6-7.4]\'','\'(71.7-75.6]\'','\'(15.7-17.6]\'','\'(-inf-1.3]\'',57.33
'\'(6.6-7.4]\'','\'(95.1-inf)\'','\'(17.6-19.5]\'','\'(3.7-inf)\'',86.19
'\'(2.6-3.4]\'','\'(63.9-67.8]\'','\'(13.8-15.7]\'','\'(3.7-inf)\'',66.32
'\'(1.8-2.6]\'','\'(63.9-67.8]\'','\'(21.4-23.3]\'','\'(2.8-3.1]\'',78.35
'\'(8.2-inf)\'','\'(83.4-87.3]\'','\'(11.9-13.8]\'','\'(-inf-1.3]\'',82.6
'\'(7.4-8.2]\'','\'(75.6-79.5]\'','\'(21.4-23.3]\'','\'(3.7-inf)\'',93.7
'\'(6.6-7.4]\'','\'(63.9-67.8]\'','\'(27.1-inf)\'','\'(2.8-3.1]\'',93.14
'\'(8.2-inf)\'','\'(95.1-inf)\'','\'(25.2-27.1]\'','\'(-inf-1.3]\'',94.1
'\'(3.4-4.2]\'','\'(71.7-75.6]\'','\'(15.7-17.6]\'','\'(1.9-2.2]\'',55.94
'\'(3.4-4.2]\'','\'(83.4-87.3]\'','\'(11.9-13.8]\'','\'(-inf-1.3]\'',60.37
'\'(-inf-1.8]\'','\'(63.9-67.8]\'','\'(21.4-23.3]\'','\'(-inf-1.3]\'',69.65
'\'(7.4-8.2]\'','\'(71.7-75.6]\'','\'(11.9-13.8]\'','\'(3.7-inf)\'',75.09
'\'(2.6-3.4]\'','\'(75.6-79.5]\'','\'(13.8-15.7]\'','\'(2.8-3.1]\'',55.87
'\'(6.6-7.4]\'','\'(95.1-inf)\'','\'(23.3-25.2]\'','\'(2.8-3.1]\'',96.77
'\'(1.8-2.6]\'','\'(87.3-91.2]\'','\'(27.1-inf)\'','\'(3.7-inf)\'',92.44
'\'(1.8-2.6]\'','\'(87.3-91.2]\'','\'(11.9-13.8]\'','\'(-inf-1.3]\'',59.15
'\'(6.6-7.4]\'','\'(-inf-63.9]\'','\'(-inf-11.9]\'','\'(1.9-2.2]\'',58.96
'\'(5.8-6.6]\'','\'(95.1-inf)\'','\'(25.2-27.1]\'','\'(-inf-1.3]\'',93.03
'\'(2.6-3.4]\'','\'(91.2-95.1]\'','\'(27.1-inf)\'','\'(-inf-1.3]\'',86.89
'\'(8.2-inf)\'','\'(95.1-inf)\'','\'(27.1-inf)\'','\'(1.9-2.2]\'',96.49
'\'(5.8-6.6]\'','\'(83.4-87.3]\'','\'(25.2-27.1]\'','\'(3.7-inf)\'',94.08
'\'(5.8-6.6]\'','\'(71.7-75.6]\'','\'(21.4-23.3]\'','\'(2.8-3.1]\'',79.65
'\'(-inf-1.8]\'','\'(91.2-95.1]\'','\'(27.1-inf)\'','\'(3.7-inf)\'',79.16
'\'(3.4-4.2]\'','\'(63.9-67.8]\'','\'(21.4-23.3]\'','\'(3.7-inf)\'',72.69
'\'(5.8-6.6]\'','\'(79.5-83.4]\'','\'(19.5-21.4]\'','\'(-inf-1.3]\'',68.08
'\'(5.8-6.6]\'','\'(75.6-79.5]\'','\'(13.8-15.7]\'','\'(2.8-3.1]\'',75.3
'\'(4.2-5]\'','\'(71.7-75.6]\'','\'(11.9-13.8]\'','\'(2.8-3.1]\'',66.28
'\'(-inf-1.8]\'','\'(95.1-inf)\'','\'(27.1-inf)\'','\'(3.7-inf)\'',86.92
'\'(7.4-8.2]\'','\'(83.4-87.3]\'','\'(23.3-25.2]\'','\'(1.9-2.2]\'',96.7
'\'(4.2-5]\'','\'(91.2-95.1]\'','\'(21.4-23.3]\'','\'(3.7-inf)\'',85.94
'\'(4.2-5]\'','\'(71.7-75.6]\'','\'(11.9-13.8]\'','\'(1.9-2.2]\'',53.94
'\'(6.6-7.4]\'','\'(83.4-87.3]\'','\'(25.2-27.1]\'','\'(2.8-3.1]\'',88.5
'\'(3.4-4.2]\'','\'(91.2-95.1]\'','\'(-inf-11.9]\'','\'(3.7-inf)\'',74.66
'\'(5.8-6.6]\'','\'(83.4-87.3]\'','\'(25.2-27.1]\'','\'(-inf-1.3]\'',82.45
'\'(3.4-4.2]\'','\'(95.1-inf)\'','\'(27.1-inf)\'','\'(3.7-inf)\'',96.98
'\'(2.6-3.4]\'','\'(63.9-67.8]\'','\'(25.2-27.1]\'','\'(2.8-3.1]\'',81.02
'\'(6.6-7.4]\'','\'(63.9-67.8]\'','\'(23.3-25.2]\'','\'(-inf-1.3]\'',79.65
'\'(7.4-8.2]\'','\'(87.3-91.2]\'','\'(19.5-21.4]\'','\'(-inf-1.3]\'',92.75
'\'(3.4-4.2]\'','\'(79.5-83.4]\'','\'(21.4-23.3]\'','\'(1.9-2.2]\'',69.72
'\'(1.8-2.6]\'','\'(67.8-71.7]\'','\'(-inf-11.9]\'','\'(-inf-1.3]\'',41.82
'\'(2.6-3.4]\'','\'(87.3-91.2]\'','\'(25.2-27.1]\'','\'(-inf-1.3]\'',74
'\'(-inf-1.8]\'','\'(87.3-91.2]\'','\'(13.8-15.7]\'','\'(3.7-inf)\'',64.72
'\'(7.4-8.2]\'','\'(95.1-inf)\'','\'(11.9-13.8]\'','\'(2.8-3.1]\'',82.9
'\'(2.6-3.4]\'','\'(87.3-91.2]\'','\'(27.1-inf)\'','\'(1.9-2.2]\'',81.34
'\'(6.6-7.4]\'','\'(75.6-79.5]\'','\'(23.3-25.2]\'','\'(3.7-inf)\'',95.17
'\'(4.2-5]\'','\'(91.2-95.1]\'','\'(23.3-25.2]\'','\'(-inf-1.3]\'',82.18
'\'(4.2-5]\'','\'(-inf-63.9]\'','\'(23.3-25.2]\'','\'(-inf-1.3]\'',66.26
'\'(6.6-7.4]\'','\'(71.7-75.6]\'','\'(13.8-15.7]\'','\'(1.9-2.2]\'',59.64
'\'(8.2-inf)\'','\'(71.7-75.6]\'','\'(23.3-25.2]\'','\'(2.8-3.1]\'',80.46
'\'(4.2-5]\'','\'(87.3-91.2]\'','\'(21.4-23.3]\'','\'(1.9-2.2]\'',77.57
'\'(-inf-1.8]\'','\'(67.8-71.7]\'','\'(19.5-21.4]\'','\'(3.7-inf)\'',67.45
'\'(-inf-1.8]\'','\'(95.1-inf)\'','\'(15.7-17.6]\'','\'(1.9-2.2]\'',72.13
'\'(1.8-2.6]\'','\'(-inf-63.9]\'','\'(17.6-19.5]\'','\'(-inf-1.3]\'',60.8
'\'(5.8-6.6]\'','\'(87.3-91.2]\'','\'(23.3-25.2]\'','\'(3.7-inf)\'',87.61
'\'(8.2-inf)\'','\'(71.7-75.6]\'','\'(13.8-15.7]\'','\'(-inf-1.3]\'',70.14
'\'(7.4-8.2]\'','\'(83.4-87.3]\'','\'(27.1-inf)\'','\'(2.8-3.1]\'',100
'\'(4.2-5]\'','\'(75.6-79.5]\'','\'(17.6-19.5]\'','\'(-inf-1.3]\'',78.17
'\'(-inf-1.8]\'','\'(95.1-inf)\'','\'(25.2-27.1]\'','\'(-inf-1.3]\'',78.13
'\'(6.6-7.4]\'','\'(87.3-91.2]\'','\'(11.9-13.8]\'','\'(1.9-2.2]\'',73.79
'\'(4.2-5]\'','\'(91.2-95.1]\'','\'(21.4-23.3]\'','\'(-inf-1.3]\'',85.35
'\'(5.8-6.6]\'','\'(79.5-83.4]\'','\'(19.5-21.4]\'','\'(3.7-inf)\'',74.36
'\'(6.6-7.4]\'','\'(91.2-95.1]\'','\'(25.2-27.1]\'','\'(3.7-inf)\'',93.64
'\'(2.6-3.4]\'','\'(63.9-67.8]\'','\'(21.4-23.3]\'','\'(2.8-3.1]\'',82.1
'\'(2.6-3.4]\'','\'(75.6-79.5]\'','\'(13.8-15.7]\'','\'(3.7-inf)\'',65.39
'\'(4.2-5]\'','\'(87.3-91.2]\'','\'(25.2-27.1]\'','\'(1.9-2.2]\'',71.06
'\'(5.8-6.6]\'','\'(63.9-67.8]\'','\'(21.4-23.3]\'','\'(2.8-3.1]\'',76.7
'\'(8.2-inf)\'','\'(67.8-71.7]\'','\'(27.1-inf)\'','\'(3.7-inf)\'',100
'\'(4.2-5]\'','\'(87.3-91.2]\'','\'(27.1-inf)\'','\'(1.9-2.2]\'',89.33
'\'(-inf-1.8]\'','\'(91.2-95.1]\'','\'(17.6-19.5]\'','\'(3.7-inf)\'',76.98
'\'(3.4-4.2]\'','\'(83.4-87.3]\'','\'(11.9-13.8]\'','\'(3.7-inf)\'',71.79
'\'(4.2-5]\'','\'(71.7-75.6]\'','\'(21.4-23.3]\'','\'(-inf-1.3]\'',72.43
'\'(4.2-5]\'','\'(87.3-91.2]\'','\'(27.1-inf)\'','\'(3.7-inf)\'',91.1
'\'(6.6-7.4]\'','\'(95.1-inf)\'','\'(13.8-15.7]\'','\'(3.7-inf)\'',79.57
'\'(3.4-4.2]\'','\'(87.3-91.2]\'','\'(13.8-15.7]\'','\'(1.9-2.2]\'',66.29
'\'(-inf-1.8]\'','\'(79.5-83.4]\'','\'(27.1-inf)\'','\'(1.9-2.2]\'',80.07
'\'(4.2-5]\'','\'(-inf-63.9]\'','\'(25.2-27.1]\'','\'(-inf-1.3]\'',75.88
'\'(6.6-7.4]\'','\'(75.6-79.5]\'','\'(17.6-19.5]\'','\'(3.7-inf)\'',77.46
'\'(5.8-6.6]\'','\'(87.3-91.2]\'','\'(13.8-15.7]\'','\'(-inf-1.3]\'',71.55
'\'(4.2-5]\'','\'(91.2-95.1]\'','\'(11.9-13.8]\'','\'(3.7-inf)\'',76
'\'(3.4-4.2]\'','\'(-inf-63.9]\'','\'(13.8-15.7]\'','\'(2.8-3.1]\'',55.22
'\'(1.8-2.6]\'','\'(83.4-87.3]\'','\'(11.9-13.8]\'','\'(2.8-3.1]\'',59.85
'\'(3.4-4.2]\'','\'(75.6-79.5]\'','\'(15.7-17.6]\'','\'(-inf-1.3]\'',62.77
'\'(2.6-3.4]\'','\'(67.8-71.7]\'','\'(15.7-17.6]\'','\'(-inf-1.3]\'',56.13
'\'(-inf-1.8]\'','\'(79.5-83.4]\'','\'(25.2-27.1]\'','\'(-inf-1.3]\'',77.49
'\'(7.4-8.2]\'','\'(75.6-79.5]\'','\'(11.9-13.8]\'','\'(1.9-2.2]\'',66.47
'\'(4.2-5]\'','\'(67.8-71.7]\'','\'(-inf-11.9]\'','\'(1.9-2.2]\'',56.55
'\'(3.4-4.2]\'','\'(-inf-63.9]\'','\'(11.9-13.8]\'','\'(1.9-2.2]\'',53.5
'\'(7.4-8.2]\'','\'(79.5-83.4]\'','\'(13.8-15.7]\'','\'(-inf-1.3]\'',60.33
'\'(6.6-7.4]\'','\'(83.4-87.3]\'','\'(17.6-19.5]\'','\'(3.7-inf)\'',71.25
'\'(1.8-2.6]\'','\'(75.6-79.5]\'','\'(21.4-23.3]\'','\'(2.8-3.1]\'',77.05
'\'(-inf-1.8]\'','\'(71.7-75.6]\'','\'(19.5-21.4]\'','\'(-inf-1.3]\'',64.23
'\'(3.4-4.2]\'','\'(87.3-91.2]\'','\'(27.1-inf)\'','\'(1.9-2.2]\'',90.09
'\'(7.4-8.2]\'','\'(67.8-71.7]\'','\'(11.9-13.8]\'','\'(1.9-2.2]\'',67.47
'\'(1.8-2.6]\'','\'(91.2-95.1]\'','\'(19.5-21.4]\'','\'(-inf-1.3]\'',72.57
'\'(2.6-3.4]\'','\'(91.2-95.1]\'','\'(17.6-19.5]\'','\'(-inf-1.3]\'',75.05
'\'(-inf-1.8]\'','\'(67.8-71.7]\'','\'(15.7-17.6]\'','\'(1.9-2.2]\'',59.52
'\'(-inf-1.8]\'','\'(63.9-67.8]\'','\'(11.9-13.8]\'','\'(3.7-inf)\'',60
'\'(2.6-3.4]\'','\'(87.3-91.2]\'','\'(21.4-23.3]\'','\'(1.9-2.2]\'',77.76
'\'(4.2-5]\'','\'(67.8-71.7]\'','\'(17.6-19.5]\'','\'(1.9-2.2]\'',68
'\'(2.6-3.4]\'','\'(91.2-95.1]\'','\'(23.3-25.2]\'','\'(-inf-1.3]\'',79.57
'\'(-inf-1.8]\'','\'(63.9-67.8]\'','\'(23.3-25.2]\'','\'(3.7-inf)\'',69.82
'\'(-inf-1.8]\'','\'(71.7-75.6]\'','\'(17.6-19.5]\'','\'(1.9-2.2]\'',60.8
'\'(7.4-8.2]\'','\'(87.3-91.2]\'','\'(21.4-23.3]\'','\'(1.9-2.2]\'',87.19
'\'(1.8-2.6]\'','\'(67.8-71.7]\'','\'(13.8-15.7]\'','\'(2.8-3.1]\'',60.82
'\'(2.6-3.4]\'','\'(79.5-83.4]\'','\'(19.5-21.4]\'','\'(-inf-1.3]\'',69.07
'\'(1.8-2.6]\'','\'(83.4-87.3]\'','\'(17.6-19.5]\'','\'(2.8-3.1]\'',62.06
'\'(2.6-3.4]\'','\'(91.2-95.1]\'','\'(21.4-23.3]\'','\'(2.8-3.1]\'',82.58
'\'(6.6-7.4]\'','\'(91.2-95.1]\'','\'(11.9-13.8]\'','\'(1.9-2.2]\'',75.57
'\'(-inf-1.8]\'','\'(87.3-91.2]\'','\'(19.5-21.4]\'','\'(-inf-1.3]\'',74.12
'\'(7.4-8.2]\'','\'(-inf-63.9]\'','\'(27.1-inf)\'','\'(3.7-inf)\'',95.61
'\'(1.8-2.6]\'','\'(75.6-79.5]\'','\'(25.2-27.1]\'','\'(1.9-2.2]\'',77.31
'\'(2.6-3.4]\'','\'(91.2-95.1]\'','\'(19.5-21.4]\'','\'(3.7-inf)\'',74.13
'\'(8.2-inf)\'','\'(71.7-75.6]\'','\'(11.9-13.8]\'','\'(3.7-inf)\'',81.56
'\'(6.6-7.4]\'','\'(95.1-inf)\'','\'(25.2-27.1]\'','\'(-inf-1.3]\'',92.64
'\'(3.4-4.2]\'','\'(71.7-75.6]\'','\'(-inf-11.9]\'','\'(2.8-3.1]\'',58.67
'\'(4.2-5]\'','\'(87.3-91.2]\'','\'(15.7-17.6]\'','\'(-inf-1.3]\'',66.63
'\'(1.8-2.6]\'','\'(87.3-91.2]\'','\'(13.8-15.7]\'','\'(3.7-inf)\'',66.31
'\'(7.4-8.2]\'','\'(67.8-71.7]\'','\'(23.3-25.2]\'','\'(1.9-2.2]\'',86.44
'\'(3.4-4.2]\'','\'(87.3-91.2]\'','\'(25.2-27.1]\'','\'(3.7-inf)\'',85.69
'\'(8.2-inf)\'','\'(-inf-63.9]\'','\'(19.5-21.4]\'','\'(1.9-2.2]\'',84.43
'\'(4.2-5]\'','\'(71.7-75.6]\'','\'(27.1-inf)\'','\'(1.9-2.2]\'',92.44
'\'(8.2-inf)\'','\'(75.6-79.5]\'','\'(23.3-25.2]\'','\'(-inf-1.3]\'',83.43
'\'(3.4-4.2]\'','\'(79.5-83.4]\'','\'(23.3-25.2]\'','\'(3.7-inf)\'',80.48
'\'(4.2-5]\'','\'(67.8-71.7]\'','\'(15.7-17.6]\'','\'(2.8-3.1]\'',57.42
'\'(8.2-inf)\'','\'(83.4-87.3]\'','\'(17.6-19.5]\'','\'(3.7-inf)\'',81.04
'\'(7.4-8.2]\'','\'(-inf-63.9]\'','\'(19.5-21.4]\'','\'(3.7-inf)\'',84.75
'\'(2.6-3.4]\'','\'(75.6-79.5]\'','\'(21.4-23.3]\'','\'(2.8-3.1]\'',77.38
'\'(-inf-1.8]\'','\'(83.4-87.3]\'','\'(13.8-15.7]\'','\'(-inf-1.3]\'',59.07
'\'(2.6-3.4]\'','\'(87.3-91.2]\'','\'(25.2-27.1]\'','\'(3.7-inf)\'',78.67
'\'(3.4-4.2]\'','\'(79.5-83.4]\'','\'(13.8-15.7]\'','\'(3.7-inf)\'',66.02
'\'(1.8-2.6]\'','\'(71.7-75.6]\'','\'(11.9-13.8]\'','\'(1.9-2.2]\'',61.34
'\'(-inf-1.8]\'','\'(95.1-inf)\'','\'(13.8-15.7]\'','\'(3.7-inf)\'',66.32
'\'(6.6-7.4]\'','\'(75.6-79.5]\'','\'(25.2-27.1]\'','\'(2.8-3.1]\'',82.84
'\'(7.4-8.2]\'','\'(63.9-67.8]\'','\'(27.1-inf)\'','\'(1.9-2.2]\'',86.94
'\'(6.6-7.4]\'','\'(75.6-79.5]\'','\'(27.1-inf)\'','\'(-inf-1.3]\'',83.04
'\'(4.2-5]\'','\'(63.9-67.8]\'','\'(19.5-21.4]\'','\'(1.9-2.2]\'',72.37
'\'(-inf-1.8]\'','\'(-inf-63.9]\'','\'(17.6-19.5]\'','\'(2.8-3.1]\'',60.2
'\'(6.6-7.4]\'','\'(-inf-63.9]\'','\'(-inf-11.9]\'','\'(2.8-3.1]\'',62.22
'\'(6.6-7.4]\'','\'(95.1-inf)\'','\'(25.2-27.1]\'','\'(1.9-2.2]\'',87.51
'\'(8.2-inf)\'','\'(71.7-75.6]\'','\'(11.9-13.8]\'','\'(-inf-1.3]\'',64.96
'\'(2.6-3.4]\'','\'(91.2-95.1]\'','\'(17.6-19.5]\'','\'(1.9-2.2]\'',77.85
'\'(8.2-inf)\'','\'(91.2-95.1]\'','\'(15.7-17.6]\'','\'(-inf-1.3]\'',70.93
'\'(-inf-1.8]\'','\'(83.4-87.3]\'','\'(-inf-11.9]\'','\'(1.9-2.2]\'',47.18
'\'(-inf-1.8]\'','\'(79.5-83.4]\'','\'(25.2-27.1]\'','\'(2.8-3.1]\'',79.4
'\'(3.4-4.2]\'','\'(67.8-71.7]\'','\'(-inf-11.9]\'','\'(3.7-inf)\'',62.23
'\'(8.2-inf)\'','\'(75.6-79.5]\'','\'(19.5-21.4]\'','\'(3.7-inf)\'',83.66
'\'(5.8-6.6]\'','\'(71.7-75.6]\'','\'(17.6-19.5]\'','\'(-inf-1.3]\'',67.31
'\'(2.6-3.4]\'','\'(71.7-75.6]\'','\'(15.7-17.6]\'','\'(-inf-1.3]\'',62.67
'\'(-inf-1.8]\'','\'(83.4-87.3]\'','\'(25.2-27.1]\'','\'(-inf-1.3]\'',78.55
'\'(3.4-4.2]\'','\'(63.9-67.8]\'','\'(25.2-27.1]\'','\'(2.8-3.1]\'',74.25
'\'(8.2-inf)\'','\'(83.4-87.3]\'','\'(-inf-11.9]\'','\'(1.9-2.2]\'',71.52
'\'(2.6-3.4]\'','\'(75.6-79.5]\'','\'(13.8-15.7]\'','\'(2.8-3.1]\'',71.36
'\'(8.2-inf)\'','\'(87.3-91.2]\'','\'(21.4-23.3]\'','\'(3.7-inf)\'',93.32
'\'(6.6-7.4]\'','\'(63.9-67.8]\'','\'(13.8-15.7]\'','\'(-inf-1.3]\'',58.7
'\'(3.4-4.2]\'','\'(71.7-75.6]\'','\'(-inf-11.9]\'','\'(1.9-2.2]\'',51.07
'\'(2.6-3.4]\'','\'(83.4-87.3]\'','\'(-inf-11.9]\'','\'(3.7-inf)\'',61
'\'(4.2-5]\'','\'(63.9-67.8]\'','\'(17.6-19.5]\'','\'(3.7-inf)\'',78.48
'\'(4.2-5]\'','\'(-inf-63.9]\'','\'(13.8-15.7]\'','\'(3.7-inf)\'',64.4
'\'(2.6-3.4]\'','\'(87.3-91.2]\'','\'(-inf-11.9]\'','\'(2.8-3.1]\'',62.35
'\'(8.2-inf)\'','\'(79.5-83.4]\'','\'(23.3-25.2]\'','\'(-inf-1.3]\'',82.92
'\'(3.4-4.2]\'','\'(-inf-63.9]\'','\'(-inf-11.9]\'','\'(3.7-inf)\'',63.02
'\'(4.2-5]\'','\'(75.6-79.5]\'','\'(17.6-19.5]\'','\'(-inf-1.3]\'',63.97
'\'(3.4-4.2]\'','\'(71.7-75.6]\'','\'(-inf-11.9]\'','\'(2.8-3.1]\'',56.68
'\'(4.2-5]\'','\'(83.4-87.3]\'','\'(23.3-25.2]\'','\'(3.7-inf)\'',90.85
'\'(6.6-7.4]\'','\'(87.3-91.2]\'','\'(23.3-25.2]\'','\'(2.8-3.1]\'',80.5
'\'(8.2-inf)\'','\'(71.7-75.6]\'','\'(27.1-inf)\'','\'(2.8-3.1]\'',95.27
'\'(6.6-7.4]\'','\'(63.9-67.8]\'','\'(15.7-17.6]\'','\'(-inf-1.3]\'',60.1
'\'(4.2-5]\'','\'(75.6-79.5]\'','\'(19.5-21.4]\'','\'(3.7-inf)\'',79.38
'\'(6.6-7.4]\'','\'(75.6-79.5]\'','\'(23.3-25.2]\'','\'(2.8-3.1]\'',84.44
'\'(4.2-5]\'','\'(91.2-95.1]\'','\'(15.7-17.6]\'','\'(3.7-inf)\'',89.53
'\'(2.6-3.4]\'','\'(67.8-71.7]\'','\'(13.8-15.7]\'','\'(-inf-1.3]\'',54.43
'\'(6.6-7.4]\'','\'(95.1-inf)\'','\'(17.6-19.5]\'','\'(2.8-3.1]\'',93.31
'\'(1.8-2.6]\'','\'(79.5-83.4]\'','\'(11.9-13.8]\'','\'(-inf-1.3]\'',56.73
'\'(8.2-inf)\'','\'(-inf-63.9]\'','\'(27.1-inf)\'','\'(3.7-inf)\'',89.29
'\'(-inf-1.8]\'','\'(79.5-83.4]\'','\'(25.2-27.1]\'','\'(3.7-inf)\'',82.55
'\'(5.8-6.6]\'','\'(63.9-67.8]\'','\'(15.7-17.6]\'','\'(-inf-1.3]\'',62.08
'\'(6.6-7.4]\'','\'(67.8-71.7]\'','\'(27.1-inf)\'','\'(1.9-2.2]\'',89.71
'\'(7.4-8.2]\'','\'(71.7-75.6]\'','\'(11.9-13.8]\'','\'(2.8-3.1]\'',66.03
'\'(8.2-inf)\'','\'(75.6-79.5]\'','\'(21.4-23.3]\'','\'(3.7-inf)\'',98.75
'\'(1.8-2.6]\'','\'(63.9-67.8]\'','\'(27.1-inf)\'','\'(3.7-inf)\'',87.23
'\'(1.8-2.6]\'','\'(79.5-83.4]\'','\'(23.3-25.2]\'','\'(2.8-3.1]\'',76.66
'\'(4.2-5]\'','\'(75.6-79.5]\'','\'(15.7-17.6]\'','\'(-inf-1.3]\'',74.75
'\'(4.2-5]\'','\'(87.3-91.2]\'','\'(23.3-25.2]\'','\'(-inf-1.3]\'',80.57
'\'(5.8-6.6]\'','\'(75.6-79.5]\'','\'(27.1-inf)\'','\'(-inf-1.3]\'',91.59
'\'(2.6-3.4]\'','\'(87.3-91.2]\'','\'(21.4-23.3]\'','\'(1.9-2.2]\'',77.69
'\'(7.4-8.2]\'','\'(95.1-inf)\'','\'(17.6-19.5]\'','\'(1.9-2.2]\'',84.07
'\'(-inf-1.8]\'','\'(87.3-91.2]\'','\'(15.7-17.6]\'','\'(3.7-inf)\'',69.39
'\'(5.8-6.6]\'','\'(67.8-71.7]\'','\'(25.2-27.1]\'','\'(-inf-1.3]\'',79.98
'\'(3.4-4.2]\'','\'(83.4-87.3]\'','\'(-inf-11.9]\'','\'(2.8-3.1]\'',63.05
'\'(-inf-1.8]\'','\'(91.2-95.1]\'','\'(11.9-13.8]\'','\'(3.7-inf)\'',59.25
'\'(6.6-7.4]\'','\'(95.1-inf)\'','\'(15.7-17.6]\'','\'(2.8-3.1]\'',79.09
'\'(8.2-inf)\'','\'(63.9-67.8]\'','\'(19.5-21.4]\'','\'(3.7-inf)\'',83.52
'\'(3.4-4.2]\'','\'(67.8-71.7]\'','\'(-inf-11.9]\'','\'(1.9-2.2]\'',55.15
'\'(3.4-4.2]\'','\'(79.5-83.4]\'','\'(17.6-19.5]\'','\'(3.7-inf)\'',75.65
'\'(5.8-6.6]\'','\'(79.5-83.4]\'','\'(27.1-inf)\'','\'(1.9-2.2]\'',96.27
'\'(2.6-3.4]\'','\'(75.6-79.5]\'','\'(11.9-13.8]\'','\'(3.7-inf)\'',66.04
'\'(5.8-6.6]\'','\'(67.8-71.7]\'','\'(13.8-15.7]\'','\'(-inf-1.3]\'',62.32
'\'(6.6-7.4]\'','\'(87.3-91.2]\'','\'(15.7-17.6]\'','\'(2.8-3.1]\'',84.71
'\'(2.6-3.4]\'','\'(71.7-75.6]\'','\'(27.1-inf)\'','\'(-inf-1.3]\'',88.57
'\'(6.6-7.4]\'','\'(71.7-75.6]\'','\'(25.2-27.1]\'','\'(3.7-inf)\'',81.78
'\'(2.6-3.4]\'','\'(79.5-83.4]\'','\'(19.5-21.4]\'','\'(3.7-inf)\'',79.96
'\'(1.8-2.6]\'','\'(83.4-87.3]\'','\'(27.1-inf)\'','\'(3.7-inf)\'',83.64
'\'(3.4-4.2]\'','\'(75.6-79.5]\'','\'(13.8-15.7]\'','\'(1.9-2.2]\'',66.7
'\'(7.4-8.2]\'','\'(91.2-95.1]\'','\'(27.1-inf)\'','\'(2.8-3.1]\'',100
'\'(8.2-inf)\'','\'(67.8-71.7]\'','\'(19.5-21.4]\'','\'(2.8-3.1]\'',76.82
'\'(6.6-7.4]\'','\'(95.1-inf)\'','\'(19.5-21.4]\'','\'(3.7-inf)\'',80.94
'\'(-inf-1.8]\'','\'(87.3-91.2]\'','\'(17.6-19.5]\'','\'(3.7-inf)\'',76.98
'\'(2.6-3.4]\'','\'(91.2-95.1]\'','\'(15.7-17.6]\'','\'(1.9-2.2]\'',69.78
'\'(8.2-inf)\'','\'(-inf-63.9]\'','\'(17.6-19.5]\'','\'(-inf-1.3]\'',62.46
'\'(-inf-1.8]\'','\'(91.2-95.1]\'','\'(11.9-13.8]\'','\'(-inf-1.3]\'',69.25
'\'(8.2-inf)\'','\'(91.2-95.1]\'','\'(13.8-15.7]\'','\'(2.8-3.1]\'',82.22
'\'(7.4-8.2]\'','\'(71.7-75.6]\'','\'(15.7-17.6]\'','\'(1.9-2.2]\'',76.45
'\'(-inf-1.8]\'','\'(87.3-91.2]\'','\'(17.6-19.5]\'','\'(3.7-inf)\'',77.53
'\'(5.8-6.6]\'','\'(91.2-95.1]\'','\'(23.3-25.2]\'','\'(2.8-3.1]\'',85.2
'\'(4.2-5]\'','\'(71.7-75.6]\'','\'(23.3-25.2]\'','\'(1.9-2.2]\'',78.25
'\'(5.8-6.6]\'','\'(83.4-87.3]\'','\'(23.3-25.2]\'','\'(-inf-1.3]\'',75.9
'\'(4.2-5]\'','\'(79.5-83.4]\'','\'(21.4-23.3]\'','\'(1.9-2.2]\'',75.76
'\'(5.8-6.6]\'','\'(95.1-inf)\'','\'(15.7-17.6]\'','\'(-inf-1.3]\'',76.33
'\'(4.2-5]\'','\'(-inf-63.9]\'','\'(25.2-27.1]\'','\'(1.9-2.2]\'',70.47
'\'(4.2-5]\'','\'(95.1-inf)\'','\'(17.6-19.5]\'','\'(2.8-3.1]\'',76.92
'\'(3.4-4.2]\'','\'(95.1-inf)\'','\'(27.1-inf)\'','\'(-inf-1.3]\'',83.76
'\'(2.6-3.4]\'','\'(83.4-87.3]\'','\'(13.8-15.7]\'','\'(2.8-3.1]\'',67.21
'\'(2.6-3.4]\'','\'(71.7-75.6]\'','\'(19.5-21.4]\'','\'(2.8-3.1]\'',75.07
'\'(3.4-4.2]\'','\'(91.2-95.1]\'','\'(-inf-11.9]\'','\'(-inf-1.3]\'',63.61
'\'(8.2-inf)\'','\'(95.1-inf)\'','\'(15.7-17.6]\'','\'(-inf-1.3]\'',84.19
'\'(1.8-2.6]\'','\'(67.8-71.7]\'','\'(23.3-25.2]\'','\'(3.7-inf)\'',84.36
'\'(8.2-inf)\'','\'(-inf-63.9]\'','\'(11.9-13.8]\'','\'(3.7-inf)\'',72.64
'\'(-inf-1.8]\'','\'(63.9-67.8]\'','\'(21.4-23.3]\'','\'(3.7-inf)\'',78.94
'\'(-inf-1.8]\'','\'(67.8-71.7]\'','\'(11.9-13.8]\'','\'(2.8-3.1]\'',53.5
'\'(4.2-5]\'','\'(63.9-67.8]\'','\'(25.2-27.1]\'','\'(2.8-3.1]\'',81.63
'\'(5.8-6.6]\'','\'(67.8-71.7]\'','\'(19.5-21.4]\'','\'(3.7-inf)\'',80.44
'\'(5.8-6.6]\'','\'(95.1-inf)\'','\'(15.7-17.6]\'','\'(2.8-3.1]\'',78.32
'\'(2.6-3.4]\'','\'(87.3-91.2]\'','\'(13.8-15.7]\'','\'(2.8-3.1]\'',77.26
'\'(6.6-7.4]\'','\'(87.3-91.2]\'','\'(-inf-11.9]\'','\'(-inf-1.3]\'',69.45
'\'(8.2-inf)\'','\'(67.8-71.7]\'','\'(-inf-11.9]\'','\'(-inf-1.3]\'',65.55
'\'(7.4-8.2]\'','\'(63.9-67.8]\'','\'(15.7-17.6]\'','\'(2.8-3.1]\'',74.76
'\'(5.8-6.6]\'','\'(63.9-67.8]\'','\'(13.8-15.7]\'','\'(3.7-inf)\'',66.06
'\'(7.4-8.2]\'','\'(83.4-87.3]\'','\'(23.3-25.2]\'','\'(1.9-2.2]\'',93.11
'\'(4.2-5]\'','\'(75.6-79.5]\'','\'(19.5-21.4]\'','\'(3.7-inf)\'',73.06
'\'(7.4-8.2]\'','\'(63.9-67.8]\'','\'(13.8-15.7]\'','\'(1.9-2.2]\'',74.47
'\'(3.4-4.2]\'','\'(67.8-71.7]\'','\'(11.9-13.8]\'','\'(3.7-inf)\'',62.61
'\'(7.4-8.2]\'','\'(75.6-79.5]\'','\'(13.8-15.7]\'','\'(-inf-1.3]\'',71.23
'\'(1.8-2.6]\'','\'(71.7-75.6]\'','\'(21.4-23.3]\'','\'(2.8-3.1]\'',68.95
'\'(4.2-5]\'','\'(-inf-63.9]\'','\'(27.1-inf)\'','\'(2.8-3.1]\'',87.01
'\'(8.2-inf)\'','\'(63.9-67.8]\'','\'(17.6-19.5]\'','\'(-inf-1.3]\'',69.73
'\'(3.4-4.2]\'','\'(79.5-83.4]\'','\'(19.5-21.4]\'','\'(1.9-2.2]\'',77.05
'\'(5.8-6.6]\'','\'(83.4-87.3]\'','\'(19.5-21.4]\'','\'(1.9-2.2]\'',81.29
'\'(-inf-1.8]\'','\'(-inf-63.9]\'','\'(21.4-23.3]\'','\'(1.9-2.2]\'',61.86
'\'(8.2-inf)\'','\'(71.7-75.6]\'','\'(23.3-25.2]\'','\'(-inf-1.3]\'',79.28
'\'(-inf-1.8]\'','\'(67.8-71.7]\'','\'(-inf-11.9]\'','\'(1.9-2.2]\'',55.66
'\'(4.2-5]\'','\'(75.6-79.5]\'','\'(21.4-23.3]\'','\'(-inf-1.3]\'',72.64
'\'(3.4-4.2]\'','\'(67.8-71.7]\'','\'(21.4-23.3]\'','\'(3.7-inf)\'',78.42
'\'(2.6-3.4]\'','\'(79.5-83.4]\'','\'(-inf-11.9]\'','\'(3.7-inf)\'',64.53
'\'(5.8-6.6]\'','\'(67.8-71.7]\'','\'(11.9-13.8]\'','\'(-inf-1.3]\'',54.03
'\'(1.8-2.6]\'','\'(71.7-75.6]\'','\'(13.8-15.7]\'','\'(2.8-3.1]\'',62.91
'\'(2.6-3.4]\'','\'(83.4-87.3]\'','\'(13.8-15.7]\'','\'(3.7-inf)\'',67.7
'\'(4.2-5]\'','\'(75.6-79.5]\'','\'(11.9-13.8]\'','\'(1.9-2.2]\'',58.18
'\'(8.2-inf)\'','\'(91.2-95.1]\'','\'(-inf-11.9]\'','\'(-inf-1.3]\'',63.22
'\'(1.8-2.6]\'','\'(63.9-67.8]\'','\'(11.9-13.8]\'','\'(1.9-2.2]\'',56.63
'\'(7.4-8.2]\'','\'(87.3-91.2]\'','\'(27.1-inf)\'','\'(1.9-2.2]\'',100
'\'(1.8-2.6]\'','\'(87.3-91.2]\'','\'(-inf-11.9]\'','\'(2.8-3.1]\'',61.19
'\'(4.2-5]\'','\'(75.6-79.5]\'','\'(13.8-15.7]\'','\'(1.9-2.2]\'',56.93
'\'(6.6-7.4]\'','\'(63.9-67.8]\'','\'(11.9-13.8]\'','\'(2.8-3.1]\'',58.71
'\'(7.4-8.2]\'','\'(75.6-79.5]\'','\'(17.6-19.5]\'','\'(3.7-inf)\'',78.94
'\'(-inf-1.8]\'','\'(75.6-79.5]\'','\'(27.1-inf)\'','\'(-inf-1.3]\'',84.22
'\'(5.8-6.6]\'','\'(79.5-83.4]\'','\'(13.8-15.7]\'','\'(1.9-2.2]\'',67.57
'\'(-inf-1.8]\'','\'(95.1-inf)\'','\'(25.2-27.1]\'','\'(-inf-1.3]\'',76.46
'\'(1.8-2.6]\'','\'(87.3-91.2]\'','\'(13.8-15.7]\'','\'(1.9-2.2]\'',55.43
'\'(-inf-1.8]\'','\'(-inf-63.9]\'','\'(27.1-inf)\'','\'(-inf-1.3]\'',66.82
'\'(4.2-5]\'','\'(83.4-87.3]\'','\'(19.5-21.4]\'','\'(1.9-2.2]\'',71.44
'\'(8.2-inf)\'','\'(67.8-71.7]\'','\'(19.5-21.4]\'','\'(1.9-2.2]\'',73.68
'\'(5.8-6.6]\'','\'(91.2-95.1]\'','\'(-inf-11.9]\'','\'(1.9-2.2]\'',67.3
'\'(-inf-1.8]\'','\'(87.3-91.2]\'','\'(23.3-25.2]\'','\'(1.9-2.2]\'',72.39
'\'(-inf-1.8]\'','\'(71.7-75.6]\'','\'(19.5-21.4]\'','\'(1.9-2.2]\'',74.2
'\'(1.8-2.6]\'','\'(91.2-95.1]\'','\'(19.5-21.4]\'','\'(1.9-2.2]\'',78.49
'\'(8.2-inf)\'','\'(63.9-67.8]\'','\'(17.6-19.5]\'','\'(1.9-2.2]\'',71.76
'\'(2.6-3.4]\'','\'(67.8-71.7]\'','\'(-inf-11.9]\'','\'(1.9-2.2]\'',49.22
'\'(-inf-1.8]\'','\'(87.3-91.2]\'','\'(11.9-13.8]\'','\'(1.9-2.2]\'',63.61
'\'(4.2-5]\'','\'(79.5-83.4]\'','\'(19.5-21.4]\'','\'(-inf-1.3]\'',81.3
'\'(6.6-7.4]\'','\'(87.3-91.2]\'','\'(23.3-25.2]\'','\'(2.8-3.1]\'',80.03
'\'(5.8-6.6]\'','\'(79.5-83.4]\'','\'(-inf-11.9]\'','\'(1.9-2.2]\'',62.36
'\'(-inf-1.8]\'','\'(75.6-79.5]\'','\'(11.9-13.8]\'','\'(2.8-3.1]\'',54.94
'\'(4.2-5]\'','\'(95.1-inf)\'','\'(27.1-inf)\'','\'(1.9-2.2]\'',95.55
'\'(4.2-5]\'','\'(-inf-63.9]\'','\'(-inf-11.9]\'','\'(1.9-2.2]\'',65.11
'\'(5.8-6.6]\'','\'(83.4-87.3]\'','\'(17.6-19.5]\'','\'(-inf-1.3]\'',70.18
'\'(2.6-3.4]\'','\'(75.6-79.5]\'','\'(27.1-inf)\'','\'(3.7-inf)\'',76.4
'\'(4.2-5]\'','\'(79.5-83.4]\'','\'(23.3-25.2]\'','\'(3.7-inf)\'',88.8
'\'(6.6-7.4]\'','\'(87.3-91.2]\'','\'(25.2-27.1]\'','\'(-inf-1.3]\'',96.25
'\'(4.2-5]\'','\'(91.2-95.1]\'','\'(19.5-21.4]\'','\'(2.8-3.1]\'',79.48
'\'(4.2-5]\'','\'(91.2-95.1]\'','\'(23.3-25.2]\'','\'(3.7-inf)\'',86.87
'\'(4.2-5]\'','\'(91.2-95.1]\'','\'(25.2-27.1]\'','\'(-inf-1.3]\'',82.81
'\'(2.6-3.4]\'','\'(-inf-63.9]\'','\'(13.8-15.7]\'','\'(-inf-1.3]\'',57.05
'\'(-inf-1.8]\'','\'(71.7-75.6]\'','\'(19.5-21.4]\'','\'(3.7-inf)\'',68.43
'\'(4.2-5]\'','\'(91.2-95.1]\'','\'(19.5-21.4]\'','\'(2.8-3.1]\'',82.04
'\'(8.2-inf)\'','\'(91.2-95.1]\'','\'(23.3-25.2]\'','\'(-inf-1.3]\'',90.14
'\'(-inf-1.8]\'','\'(63.9-67.8]\'','\'(11.9-13.8]\'','\'(1.9-2.2]\'',49.12
'\'(2.6-3.4]\'','\'(95.1-inf)\'','\'(-inf-11.9]\'','\'(2.8-3.1]\'',66.41
'\'(3.4-4.2]\'','\'(67.8-71.7]\'','\'(27.1-inf)\'','\'(2.8-3.1]\'',82.91
'\'(-inf-1.8]\'','\'(-inf-63.9]\'','\'(23.3-25.2]\'','\'(3.7-inf)\'',70.95
'\'(-inf-1.8]\'','\'(75.6-79.5]\'','\'(-inf-11.9]\'','\'(3.7-inf)\'',60.59
'\'(7.4-8.2]\'','\'(95.1-inf)\'','\'(-inf-11.9]\'','\'(1.9-2.2]\'',67.27
'\'(1.8-2.6]\'','\'(79.5-83.4]\'','\'(11.9-13.8]\'','\'(-inf-1.3]\'',49.1
'\'(7.4-8.2]\'','\'(71.7-75.6]\'','\'(15.7-17.6]\'','\'(3.7-inf)\'',72.4
'\'(6.6-7.4]\'','\'(91.2-95.1]\'','\'(23.3-25.2]\'','\'(3.7-inf)\'',96.85
'\'(1.8-2.6]\'','\'(91.2-95.1]\'','\'(15.7-17.6]\'','\'(2.8-3.1]\'',68.17
'\'(5.8-6.6]\'','\'(83.4-87.3]\'','\'(13.8-15.7]\'','\'(3.7-inf)\'',68.43
'\'(5.8-6.6]\'','\'(63.9-67.8]\'','\'(17.6-19.5]\'','\'(3.7-inf)\'',78.37
'\'(2.6-3.4]\'','\'(91.2-95.1]\'','\'(27.1-inf)\'','\'(3.7-inf)\'',90.22
'\'(1.8-2.6]\'','\'(87.3-91.2]\'','\'(-inf-11.9]\'','\'(3.7-inf)\'',56.34
'\'(-inf-1.8]\'','\'(79.5-83.4]\'','\'(15.7-17.6]\'','\'(2.8-3.1]\'',63.62
'\'(5.8-6.6]\'','\'(71.7-75.6]\'','\'(11.9-13.8]\'','\'(1.9-2.2]\'',69.29
'\'(4.2-5]\'','\'(71.7-75.6]\'','\'(11.9-13.8]\'','\'(1.9-2.2]\'',59.43
'\'(8.2-inf)\'','\'(-inf-63.9]\'','\'(23.3-25.2]\'','\'(-inf-1.3]\'',82.68
'\'(-inf-1.8]\'','\'(95.1-inf)\'','\'(13.8-15.7]\'','\'(3.7-inf)\'',71.94
'\'(6.6-7.4]\'','\'(63.9-67.8]\'','\'(23.3-25.2]\'','\'(2.8-3.1]\'',83.92
'\'(4.2-5]\'','\'(95.1-inf)\'','\'(11.9-13.8]\'','\'(-inf-1.3]\'',70.96
'\'(4.2-5]\'','\'(71.7-75.6]\'','\'(21.4-23.3]\'','\'(-inf-1.3]\'',70.36
'\'(1.8-2.6]\'','\'(95.1-inf)\'','\'(27.1-inf)\'','\'(1.9-2.2]\'',81.68
'\'(2.6-3.4]\'','\'(83.4-87.3]\'','\'(21.4-23.3]\'','\'(2.8-3.1]\'',72.89
'\'(6.6-7.4]\'','\'(75.6-79.5]\'','\'(11.9-13.8]\'','\'(2.8-3.1]\'',68.98
'\'(5.8-6.6]\'','\'(-inf-63.9]\'','\'(19.5-21.4]\'','\'(2.8-3.1]\'',69.56
'\'(1.8-2.6]\'','\'(95.1-inf)\'','\'(25.2-27.1]\'','\'(1.9-2.2]\'',83.14
'\'(5.8-6.6]\'','\'(63.9-67.8]\'','\'(15.7-17.6]\'','\'(1.9-2.2]\'',65.88
'\'(1.8-2.6]\'','\'(75.6-79.5]\'','\'(17.6-19.5]\'','\'(1.9-2.2]\'',68.89
'\'(1.8-2.6]\'','\'(83.4-87.3]\'','\'(11.9-13.8]\'','\'(1.9-2.2]\'',58.66
'\'(1.8-2.6]\'','\'(83.4-87.3]\'','\'(21.4-23.3]\'','\'(1.9-2.2]\'',71.02
'\'(2.6-3.4]\'','\'(-inf-63.9]\'','\'(23.3-25.2]\'','\'(3.7-inf)\'',77.35
'\'(1.8-2.6]\'','\'(91.2-95.1]\'','\'(25.2-27.1]\'','\'(3.7-inf)\'',82.55
'\'(3.4-4.2]\'','\'(95.1-inf)\'','\'(27.1-inf)\'','\'(2.8-3.1]\'',91.11
'\'(8.2-inf)\'','\'(63.9-67.8]\'','\'(-inf-11.9]\'','\'(-inf-1.3]\'',61.3
'\'(5.8-6.6]\'','\'(-inf-63.9]\'','\'(13.8-15.7]\'','\'(2.8-3.1]\'',65.65
'\'(-inf-1.8]\'','\'(95.1-inf)\'','\'(-inf-11.9]\'','\'(-inf-1.3]\'',57.78
'\'(7.4-8.2]\'','\'(67.8-71.7]\'','\'(21.4-23.3]\'','\'(1.9-2.2]\'',78.58
'\'(6.6-7.4]\'','\'(91.2-95.1]\'','\'(13.8-15.7]\'','\'(-inf-1.3]\'',78.26
'\'(2.6-3.4]\'','\'(79.5-83.4]\'','\'(21.4-23.3]\'','\'(2.8-3.1]\'',86.71
'\'(-inf-1.8]\'','\'(87.3-91.2]\'','\'(11.9-13.8]\'','\'(2.8-3.1]\'',52.99
'\'(4.2-5]\'','\'(67.8-71.7]\'','\'(15.7-17.6]\'','\'(-inf-1.3]\'',57.92
'\'(3.4-4.2]\'','\'(67.8-71.7]\'','\'(11.9-13.8]\'','\'(3.7-inf)\'',61.92
'\'(7.4-8.2]\'','\'(-inf-63.9]\'','\'(27.1-inf)\'','\'(1.9-2.2]\'',85.32
'\'(-inf-1.8]\'','\'(71.7-75.6]\'','\'(21.4-23.3]\'','\'(1.9-2.2]\'',77.88
'\'(-inf-1.8]\'','\'(71.7-75.6]\'','\'(27.1-inf)\'','\'(2.8-3.1]\'',81.6
'\'(3.4-4.2]\'','\'(67.8-71.7]\'','\'(25.2-27.1]\'','\'(3.7-inf)\'',89.66
'\'(7.4-8.2]\'','\'(87.3-91.2]\'','\'(15.7-17.6]\'','\'(-inf-1.3]\'',65.15
'\'(4.2-5]\'','\'(67.8-71.7]\'','\'(21.4-23.3]\'','\'(1.9-2.2]\'',79.27
'\'(1.8-2.6]\'','\'(67.8-71.7]\'','\'(13.8-15.7]\'','\'(3.7-inf)\'',59.22
'\'(5.8-6.6]\'','\'(87.3-91.2]\'','\'(23.3-25.2]\'','\'(1.9-2.2]\'',82.54
'\'(4.2-5]\'','\'(-inf-63.9]\'','\'(27.1-inf)\'','\'(3.7-inf)\'',83.76
'\'(1.8-2.6]\'','\'(63.9-67.8]\'','\'(21.4-23.3]\'','\'(3.7-inf)\'',65.58
'\'(2.6-3.4]\'','\'(75.6-79.5]\'','\'(27.1-inf)\'','\'(2.8-3.1]\'',86.41
'\'(8.2-inf)\'','\'(63.9-67.8]\'','\'(11.9-13.8]\'','\'(1.9-2.2]\'',67.05
'\'(6.6-7.4]\'','\'(67.8-71.7]\'','\'(17.6-19.5]\'','\'(-inf-1.3]\'',72.63
'\'(6.6-7.4]\'','\'(-inf-63.9]\'','\'(27.1-inf)\'','\'(2.8-3.1]\'',90.94
'\'(5.8-6.6]\'','\'(75.6-79.5]\'','\'(17.6-19.5]\'','\'(2.8-3.1]\'',82.77
'\'(7.4-8.2]\'','\'(83.4-87.3]\'','\'(27.1-inf)\'','\'(-inf-1.3]\'',91.28
'\'(3.4-4.2]\'','\'(95.1-inf)\'','\'(21.4-23.3]\'','\'(2.8-3.1]\'',84.69
'\'(7.4-8.2]\'','\'(95.1-inf)\'','\'(15.7-17.6]\'','\'(3.7-inf)\'',85.26
'\'(3.4-4.2]\'','\'(67.8-71.7]\'','\'(21.4-23.3]\'','\'(3.7-inf)\'',80.69
'\'(7.4-8.2]\'','\'(95.1-inf)\'','\'(17.6-19.5]\'','\'(1.9-2.2]\'',83.76
'\'(8.2-inf)\'','\'(83.4-87.3]\'','\'(27.1-inf)\'','\'(1.9-2.2]\'',100
'\'(2.6-3.4]\'','\'(71.7-75.6]\'','\'(23.3-25.2]\'','\'(-inf-1.3]\'',69.4
'\'(2.6-3.4]\'','\'(63.9-67.8]\'','\'(27.1-inf)\'','\'(1.9-2.2]\'',71.37
'\'(1.8-2.6]\'','\'(75.6-79.5]\'','\'(21.4-23.3]\'','\'(3.7-inf)\'',73.71
'\'(2.6-3.4]\'','\'(71.7-75.6]\'','\'(13.8-15.7]\'','\'(-inf-1.3]\'',61.69
'\'(2.6-3.4]\'','\'(-inf-63.9]\'','\'(11.9-13.8]\'','\'(-inf-1.3]\'',51.42
'\'(4.2-5]\'','\'(67.8-71.7]\'','\'(15.7-17.6]\'','\'(1.9-2.2]\'',63.56
'\'(4.2-5]\'','\'(95.1-inf)\'','\'(25.2-27.1]\'','\'(3.7-inf)\'',87.42
'\'(1.8-2.6]\'','\'(75.6-79.5]\'','\'(17.6-19.5]\'','\'(-inf-1.3]\'',63.31
'\'(5.8-6.6]\'','\'(83.4-87.3]\'','\'(-inf-11.9]\'','\'(3.7-inf)\'',70.72
'\'(4.2-5]\'','\'(87.3-91.2]\'','\'(27.1-inf)\'','\'(3.7-inf)\'',96.43
'\'(5.8-6.6]\'','\'(-inf-63.9]\'','\'(21.4-23.3]\'','\'(3.7-inf)\'',78.23
'\'(-inf-1.8]\'','\'(91.2-95.1]\'','\'(19.5-21.4]\'','\'(1.9-2.2]\'',70.93
'\'(4.2-5]\'','\'(63.9-67.8]\'','\'(11.9-13.8]\'','\'(2.8-3.1]\'',60.7
'\'(8.2-inf)\'','\'(95.1-inf)\'','\'(17.6-19.5]\'','\'(2.8-3.1]\'',87.25
'\'(1.8-2.6]\'','\'(63.9-67.8]\'','\'(21.4-23.3]\'','\'(-inf-1.3]\'',59.28
'\'(-inf-1.8]\'','\'(91.2-95.1]\'','\'(17.6-19.5]\'','\'(3.7-inf)\'',72.59
'\'(8.2-inf)\'','\'(71.7-75.6]\'','\'(11.9-13.8]\'','\'(1.9-2.2]\'',67.2
'\'(8.2-inf)\'','\'(67.8-71.7]\'','\'(11.9-13.8]\'','\'(3.7-inf)\'',79
'\'(8.2-inf)\'','\'(75.6-79.5]\'','\'(15.7-17.6]\'','\'(3.7-inf)\'',82.86
'\'(5.8-6.6]\'','\'(79.5-83.4]\'','\'(-inf-11.9]\'','\'(1.9-2.2]\'',67.58
'\'(7.4-8.2]\'','\'(91.2-95.1]\'','\'(17.6-19.5]\'','\'(2.8-3.1]\'',81.89
'\'(-inf-1.8]\'','\'(83.4-87.3]\'','\'(21.4-23.3]\'','\'(3.7-inf)\'',75.37
'\'(3.4-4.2]\'','\'(87.3-91.2]\'','\'(17.6-19.5]\'','\'(3.7-inf)\'',83.87
'\'(-inf-1.8]\'','\'(95.1-inf)\'','\'(23.3-25.2]\'','\'(2.8-3.1]\'',83.58
'\'(7.4-8.2]\'','\'(87.3-91.2]\'','\'(25.2-27.1]\'','\'(1.9-2.2]\'',88.43
'\'(-inf-1.8]\'','\'(79.5-83.4]\'','\'(23.3-25.2]\'','\'(-inf-1.3]\'',76.08
'\'(2.6-3.4]\'','\'(95.1-inf)\'','\'(19.5-21.4]\'','\'(2.8-3.1]\'',76.43
'\'(3.4-4.2]\'','\'(75.6-79.5]\'','\'(11.9-13.8]\'','\'(-inf-1.3]\'',58.33
'\'(7.4-8.2]\'','\'(79.5-83.4]\'','\'(19.5-21.4]\'','\'(-inf-1.3]\'',87.28
'\'(5.8-6.6]\'','\'(71.7-75.6]\'','\'(21.4-23.3]\'','\'(2.8-3.1]\'',74.34
'\'(6.6-7.4]\'','\'(63.9-67.8]\'','\'(25.2-27.1]\'','\'(3.7-inf)\'',88.72
'\'(7.4-8.2]\'','\'(79.5-83.4]\'','\'(13.8-15.7]\'','\'(-inf-1.3]\'',70.54
'\'(1.8-2.6]\'','\'(-inf-63.9]\'','\'(23.3-25.2]\'','\'(-inf-1.3]\'',70.82
'\'(7.4-8.2]\'','\'(63.9-67.8]\'','\'(27.1-inf)\'','\'(1.9-2.2]\'',83.39
'\'(2.6-3.4]\'','\'(87.3-91.2]\'','\'(13.8-15.7]\'','\'(3.7-inf)\'',60.72
'\'(6.6-7.4]\'','\'(87.3-91.2]\'','\'(11.9-13.8]\'','\'(-inf-1.3]\'',72.25
'\'(2.6-3.4]\'','\'(95.1-inf)\'','\'(19.5-21.4]\'','\'(1.9-2.2]\'',73
'\'(6.6-7.4]\'','\'(63.9-67.8]\'','\'(-inf-11.9]\'','\'(3.7-inf)\'',59.39
'\'(1.8-2.6]\'','\'(79.5-83.4]\'','\'(17.6-19.5]\'','\'(2.8-3.1]\'',75.55
'\'(5.8-6.6]\'','\'(91.2-95.1]\'','\'(17.6-19.5]\'','\'(2.8-3.1]\'',79.75
'\'(2.6-3.4]\'','\'(-inf-63.9]\'','\'(11.9-13.8]\'','\'(1.9-2.2]\'',53.88
'\'(2.6-3.4]\'','\'(83.4-87.3]\'','\'(11.9-13.8]\'','\'(2.8-3.1]\'',61.1
'\'(8.2-inf)\'','\'(67.8-71.7]\'','\'(25.2-27.1]\'','\'(-inf-1.3]\'',79.08
'\'(6.6-7.4]\'','\'(87.3-91.2]\'','\'(-inf-11.9]\'','\'(3.7-inf)\'',75.58
'\'(4.2-5]\'','\'(75.6-79.5]\'','\'(-inf-11.9]\'','\'(-inf-1.3]\'',57.65
'\'(6.6-7.4]\'','\'(75.6-79.5]\'','\'(15.7-17.6]\'','\'(-inf-1.3]\'',70.64
'\'(8.2-inf)\'','\'(83.4-87.3]\'','\'(21.4-23.3]\'','\'(2.8-3.1]\'',88.42
'\'(-inf-1.8]\'','\'(63.9-67.8]\'','\'(23.3-25.2]\'','\'(-inf-1.3]\'',64.14
'\'(6.6-7.4]\'','\'(95.1-inf)\'','\'(15.7-17.6]\'','\'(2.8-3.1]\'',86.26
'\'(5.8-6.6]\'','\'(67.8-71.7]\'','\'(19.5-21.4]\'','\'(3.7-inf)\'',79.09
'\'(8.2-inf)\'','\'(83.4-87.3]\'','\'(19.5-21.4]\'','\'(3.7-inf)\'',89.98
'\'(-inf-1.8]\'','\'(63.9-67.8]\'','\'(21.4-23.3]\'','\'(-inf-1.3]\'',66.75
'\'(3.4-4.2]\'','\'(83.4-87.3]\'','\'(23.3-25.2]\'','\'(1.9-2.2]\'',80.24
'\'(8.2-inf)\'','\'(-inf-63.9]\'','\'(23.3-25.2]\'','\'(2.8-3.1]\'',93.61
'\'(3.4-4.2]\'','\'(91.2-95.1]\'','\'(17.6-19.5]\'','\'(2.8-3.1]\'',66.29
'\'(2.6-3.4]\'','\'(-inf-63.9]\'','\'(27.1-inf)\'','\'(-inf-1.3]\'',75
'\'(8.2-inf)\'','\'(75.6-79.5]\'','\'(27.1-inf)\'','\'(2.8-3.1]\'',93.87
'\'(1.8-2.6]\'','\'(87.3-91.2]\'','\'(15.7-17.6]\'','\'(2.8-3.1]\'',64.29
'\'(3.4-4.2]\'','\'(71.7-75.6]\'','\'(27.1-inf)\'','\'(1.9-2.2]\'',80.21
'\'(5.8-6.6]\'','\'(71.7-75.6]\'','\'(13.8-15.7]\'','\'(1.9-2.2]\'',66.67
'\'(1.8-2.6]\'','\'(63.9-67.8]\'','\'(27.1-inf)\'','\'(-inf-1.3]\'',74.7
'\'(7.4-8.2]\'','\'(83.4-87.3]\'','\'(27.1-inf)\'','\'(1.9-2.2]\'',85.91
'\'(7.4-8.2]\'','\'(83.4-87.3]\'','\'(11.9-13.8]\'','\'(-inf-1.3]\'',66.39
'\'(-inf-1.8]\'','\'(-inf-63.9]\'','\'(15.7-17.6]\'','\'(3.7-inf)\'',60.71
'\'(2.6-3.4]\'','\'(63.9-67.8]\'','\'(11.9-13.8]\'','\'(-inf-1.3]\'',48.12
'\'(8.2-inf)\'','\'(67.8-71.7]\'','\'(19.5-21.4]\'','\'(3.7-inf)\'',79.33
'\'(4.2-5]\'','\'(91.2-95.1]\'','\'(21.4-23.3]\'','\'(-inf-1.3]\'',66.82
'\'(5.8-6.6]\'','\'(83.4-87.3]\'','\'(11.9-13.8]\'','\'(2.8-3.1]\'',64.38
'\'(3.4-4.2]\'','\'(71.7-75.6]\'','\'(19.5-21.4]\'','\'(1.9-2.2]\'',65.35
'\'(1.8-2.6]\'','\'(67.8-71.7]\'','\'(-inf-11.9]\'','\'(3.7-inf)\'',50.98
'\'(7.4-8.2]\'','\'(71.7-75.6]\'','\'(-inf-11.9]\'','\'(-inf-1.3]\'',60.24
'\'(5.8-6.6]\'','\'(87.3-91.2]\'','\'(17.6-19.5]\'','\'(1.9-2.2]\'',73
'\'(4.2-5]\'','\'(67.8-71.7]\'','\'(-inf-11.9]\'','\'(-inf-1.3]\'',47.67
'\'(8.2-inf)\'','\'(-inf-63.9]\'','\'(15.7-17.6]\'','\'(1.9-2.2]\'',61.82
'\'(-inf-1.8]\'','\'(91.2-95.1]\'','\'(13.8-15.7]\'','\'(1.9-2.2]\'',63.91
'\'(4.2-5]\'','\'(95.1-inf)\'','\'(13.8-15.7]\'','\'(-inf-1.3]\'',72.86
'\'(5.8-6.6]\'','\'(-inf-63.9]\'','\'(25.2-27.1]\'','\'(3.7-inf)\'',84.42
'\'(4.2-5]\'','\'(95.1-inf)\'','\'(25.2-27.1]\'','\'(3.7-inf)\'',91.77
'\'(5.8-6.6]\'','\'(75.6-79.5]\'','\'(19.5-21.4]\'','\'(2.8-3.1]\'',79.41
'\'(5.8-6.6]\'','\'(63.9-67.8]\'','\'(13.8-15.7]\'','\'(1.9-2.2]\'',71.89
'\'(6.6-7.4]\'','\'(91.2-95.1]\'','\'(15.7-17.6]\'','\'(2.8-3.1]\'',72.06
'\'(3.4-4.2]\'','\'(75.6-79.5]\'','\'(27.1-inf)\'','\'(2.8-3.1]\'',83.53
'\'(7.4-8.2]\'','\'(71.7-75.6]\'','\'(17.6-19.5]\'','\'(-inf-1.3]\'',64.99
'\'(6.6-7.4]\'','\'(79.5-83.4]\'','\'(-inf-11.9]\'','\'(-inf-1.3]\'',62.91
'\'(8.2-inf)\'','\'(75.6-79.5]\'','\'(21.4-23.3]\'','\'(-inf-1.3]\'',81.18
'\'(6.6-7.4]\'','\'(67.8-71.7]\'','\'(25.2-27.1]\'','\'(1.9-2.2]\'',85.01
'\'(2.6-3.4]\'','\'(-inf-63.9]\'','\'(11.9-13.8]\'','\'(-inf-1.3]\'',50.27
'\'(2.6-3.4]\'','\'(79.5-83.4]\'','\'(15.7-17.6]\'','\'(-inf-1.3]\'',68.85
'\'(7.4-8.2]\'','\'(63.9-67.8]\'','\'(21.4-23.3]\'','\'(1.9-2.2]\'',82.99
'\'(4.2-5]\'','\'(83.4-87.3]\'','\'(11.9-13.8]\'','\'(1.9-2.2]\'',67.35
'\'(3.4-4.2]\'','\'(79.5-83.4]\'','\'(23.3-25.2]\'','\'(3.7-inf)\'',79.17
'\'(7.4-8.2]\'','\'(71.7-75.6]\'','\'(21.4-23.3]\'','\'(-inf-1.3]\'',84.67
'\'(5.8-6.6]\'','\'(-inf-63.9]\'','\'(27.1-inf)\'','\'(-inf-1.3]\'',77.39
'\'(1.8-2.6]\'','\'(67.8-71.7]\'','\'(25.2-27.1]\'','\'(-inf-1.3]\'',68.48
'\'(3.4-4.2]\'','\'(63.9-67.8]\'','\'(21.4-23.3]\'','\'(3.7-inf)\'',77.15
'\'(3.4-4.2]\'','\'(71.7-75.6]\'','\'(13.8-15.7]\'','\'(-inf-1.3]\'',61.71
'\'(5.8-6.6]\'','\'(79.5-83.4]\'','\'(25.2-27.1]\'','\'(3.7-inf)\'',84.64
'\'(5.8-6.6]\'','\'(75.6-79.5]\'','\'(21.4-23.3]\'','\'(2.8-3.1]\'',81.53
'\'(-inf-1.8]\'','\'(87.3-91.2]\'','\'(25.2-27.1]\'','\'(3.7-inf)\'',89.84
'\'(7.4-8.2]\'','\'(83.4-87.3]\'','\'(15.7-17.6]\'','\'(2.8-3.1]\'',71.86
'\'(5.8-6.6]\'','\'(91.2-95.1]\'','\'(19.5-21.4]\'','\'(-inf-1.3]\'',84.53
'\'(2.6-3.4]\'','\'(87.3-91.2]\'','\'(27.1-inf)\'','\'(2.8-3.1]\'',88.09
'\'(8.2-inf)\'','\'(91.2-95.1]\'','\'(-inf-11.9]\'','\'(3.7-inf)\'',64.51
'\'(1.8-2.6]\'','\'(95.1-inf)\'','\'(15.7-17.6]\'','\'(1.9-2.2]\'',60.27
'\'(7.4-8.2]\'','\'(83.4-87.3]\'','\'(25.2-27.1]\'','\'(2.8-3.1]\'',88.18
'\'(2.6-3.4]\'','\'(67.8-71.7]\'','\'(17.6-19.5]\'','\'(2.8-3.1]\'',64.88
'\'(4.2-5]\'','\'(91.2-95.1]\'','\'(19.5-21.4]\'','\'(-inf-1.3]\'',75.18
'\'(5.8-6.6]\'','\'(63.9-67.8]\'','\'(17.6-19.5]\'','\'(3.7-inf)\'',60.58
'\'(5.8-6.6]\'','\'(71.7-75.6]\'','\'(17.6-19.5]\'','\'(2.8-3.1]\'',74.33
'\'(3.4-4.2]\'','\'(67.8-71.7]\'','\'(13.8-15.7]\'','\'(2.8-3.1]\'',56.92
'\'(2.6-3.4]\'','\'(-inf-63.9]\'','\'(25.2-27.1]\'','\'(2.8-3.1]\'',82.75
'\'(3.4-4.2]\'','\'(67.8-71.7]\'','\'(17.6-19.5]\'','\'(2.8-3.1]\'',66.55
'\'(-inf-1.8]\'','\'(-inf-63.9]\'','\'(25.2-27.1]\'','\'(1.9-2.2]\'',74.31
'\'(3.4-4.2]\'','\'(79.5-83.4]\'','\'(27.1-inf)\'','\'(3.7-inf)\'',94.55
'\'(-inf-1.8]\'','\'(83.4-87.3]\'','\'(15.7-17.6]\'','\'(-inf-1.3]\'',64.42
'\'(-inf-1.8]\'','\'(63.9-67.8]\'','\'(17.6-19.5]\'','\'(-inf-1.3]\'',53.77
'\'(5.8-6.6]\'','\'(-inf-63.9]\'','\'(15.7-17.6]\'','\'(1.9-2.2]\'',61.4
'\'(4.2-5]\'','\'(63.9-67.8]\'','\'(21.4-23.3]\'','\'(3.7-inf)\'',76.38
'\'(3.4-4.2]\'','\'(83.4-87.3]\'','\'(19.5-21.4]\'','\'(2.8-3.1]\'',79.78
'\'(2.6-3.4]\'','\'(87.3-91.2]\'','\'(21.4-23.3]\'','\'(1.9-2.2]\'',74.35
'\'(-inf-1.8]\'','\'(83.4-87.3]\'','\'(27.1-inf)\'','\'(3.7-inf)\'',83.9
'\'(5.8-6.6]\'','\'(83.4-87.3]\'','\'(19.5-21.4]\'','\'(2.8-3.1]\'',81.07
'\'(1.8-2.6]\'','\'(67.8-71.7]\'','\'(21.4-23.3]\'','\'(1.9-2.2]\'',63.78
'\'(7.4-8.2]\'','\'(63.9-67.8]\'','\'(21.4-23.3]\'','\'(3.7-inf)\'',79.86
'\'(4.2-5]\'','\'(91.2-95.1]\'','\'(21.4-23.3]\'','\'(-inf-1.3]\'',77.61
'\'(6.6-7.4]\'','\'(95.1-inf)\'','\'(-inf-11.9]\'','\'(-inf-1.3]\'',65.17
'\'(1.8-2.6]\'','\'(71.7-75.6]\'','\'(15.7-17.6]\'','\'(3.7-inf)\'',68.87
'\'(7.4-8.2]\'','\'(91.2-95.1]\'','\'(19.5-21.4]\'','\'(-inf-1.3]\'',86.86
'\'(1.8-2.6]\'','\'(71.7-75.6]\'','\'(27.1-inf)\'','\'(3.7-inf)\'',77.7
'\'(3.4-4.2]\'','\'(79.5-83.4]\'','\'(19.5-21.4]\'','\'(2.8-3.1]\'',72.54
'\'(-inf-1.8]\'','\'(63.9-67.8]\'','\'(15.7-17.6]\'','\'(3.7-inf)\'',57.15
'\'(4.2-5]\'','\'(79.5-83.4]\'','\'(15.7-17.6]\'','\'(2.8-3.1]\'',79.06
'\'(8.2-inf)\'','\'(79.5-83.4]\'','\'(21.4-23.3]\'','\'(1.9-2.2]\'',85
'\'(-inf-1.8]\'','\'(71.7-75.6]\'','\'(19.5-21.4]\'','\'(3.7-inf)\'',71.08
'\'(8.2-inf)\'','\'(71.7-75.6]\'','\'(23.3-25.2]\'','\'(1.9-2.2]\'',87.99
'\'(7.4-8.2]\'','\'(83.4-87.3]\'','\'(-inf-11.9]\'','\'(-inf-1.3]\'',60.12
'\'(5.8-6.6]\'','\'(91.2-95.1]\'','\'(21.4-23.3]\'','\'(2.8-3.1]\'',93.82
'\'(6.6-7.4]\'','\'(67.8-71.7]\'','\'(15.7-17.6]\'','\'(3.7-inf)\'',76.06
'\'(2.6-3.4]\'','\'(71.7-75.6]\'','\'(13.8-15.7]\'','\'(1.9-2.2]\'',59.4
'\'(-inf-1.8]\'','\'(-inf-63.9]\'','\'(15.7-17.6]\'','\'(2.8-3.1]\'',53.37
'\'(4.2-5]\'','\'(79.5-83.4]\'','\'(21.4-23.3]\'','\'(2.8-3.1]\'',75.19
'\'(1.8-2.6]\'','\'(71.7-75.6]\'','\'(21.4-23.3]\'','\'(-inf-1.3]\'',64.56
'\'(4.2-5]\'','\'(79.5-83.4]\'','\'(23.3-25.2]\'','\'(-inf-1.3]\'',74.3
'\'(7.4-8.2]\'','\'(75.6-79.5]\'','\'(25.2-27.1]\'','\'(2.8-3.1]\'',85.56
'\'(8.2-inf)\'','\'(91.2-95.1]\'','\'(23.3-25.2]\'','\'(2.8-3.1]\'',92.55
'\'(1.8-2.6]\'','\'(71.7-75.6]\'','\'(27.1-inf)\'','\'(3.7-inf)\'',83.32
'\'(2.6-3.4]\'','\'(-inf-63.9]\'','\'(25.2-27.1]\'','\'(2.8-3.1]\'',78.61
'\'(2.6-3.4]\'','\'(83.4-87.3]\'','\'(25.2-27.1]\'','\'(3.7-inf)\'',84.78
'\'(-inf-1.8]\'','\'(87.3-91.2]\'','\'(-inf-11.9]\'','\'(2.8-3.1]\'',52.36
'\'(7.4-8.2]\'','\'(83.4-87.3]\'','\'(11.9-13.8]\'','\'(-inf-1.3]\'',64.24
'\'(5.8-6.6]\'','\'(91.2-95.1]\'','\'(-inf-11.9]\'','\'(3.7-inf)\'',76.26
'\'(7.4-8.2]\'','\'(63.9-67.8]\'','\'(11.9-13.8]\'','\'(1.9-2.2]\'',59.34
'\'(8.2-inf)\'','\'(71.7-75.6]\'','\'(25.2-27.1]\'','\'(-inf-1.3]\'',90.32
'\'(4.2-5]\'','\'(91.2-95.1]\'','\'(13.8-15.7]\'','\'(3.7-inf)\'',77.1
'\'(2.6-3.4]\'','\'(87.3-91.2]\'','\'(27.1-inf)\'','\'(3.7-inf)\'',89.09
'\'(4.2-5]\'','\'(75.6-79.5]\'','\'(23.3-25.2]\'','\'(1.9-2.2]\'',87.94
'\'(4.2-5]\'','\'(-inf-63.9]\'','\'(15.7-17.6]\'','\'(3.7-inf)\'',71.31
'\'(4.2-5]\'','\'(71.7-75.6]\'','\'(27.1-inf)\'','\'(2.8-3.1]\'',96.81
'\'(2.6-3.4]\'','\'(-inf-63.9]\'','\'(25.2-27.1]\'','\'(1.9-2.2]\'',70.64
'\'(3.4-4.2]\'','\'(83.4-87.3]\'','\'(-inf-11.9]\'','\'(-inf-1.3]\'',52.83
'\'(8.2-inf)\'','\'(83.4-87.3]\'','\'(19.5-21.4]\'','\'(-inf-1.3]\'',84.84
'\'(8.2-inf)\'','\'(87.3-91.2]\'','\'(27.1-inf)\'','\'(2.8-3.1]\'',97.89
'\'(1.8-2.6]\'','\'(67.8-71.7]\'','\'(23.3-25.2]\'','\'(-inf-1.3]\'',76.93
'\'(7.4-8.2]\'','\'(63.9-67.8]\'','\'(17.6-19.5]\'','\'(3.7-inf)\'',79.51
'\'(7.4-8.2]\'','\'(87.3-91.2]\'','\'(15.7-17.6]\'','\'(3.7-inf)\'',76.78
'\'(6.6-7.4]\'','\'(67.8-71.7]\'','\'(-inf-11.9]\'','\'(2.8-3.1]\'',55.02
'\'(7.4-8.2]\'','\'(95.1-inf)\'','\'(17.6-19.5]\'','\'(-inf-1.3]\'',79.51
'\'(2.6-3.4]\'','\'(71.7-75.6]\'','\'(17.6-19.5]\'','\'(-inf-1.3]\'',63.15
'\'(5.8-6.6]\'','\'(87.3-91.2]\'','\'(-inf-11.9]\'','\'(2.8-3.1]\'',69.57
'\'(-inf-1.8]\'','\'(63.9-67.8]\'','\'(27.1-inf)\'','\'(1.9-2.2]\'',79.85
'\'(6.6-7.4]\'','\'(91.2-95.1]\'','\'(19.5-21.4]\'','\'(-inf-1.3]\'',85.4
'\'(-inf-1.8]\'','\'(75.6-79.5]\'','\'(21.4-23.3]\'','\'(1.9-2.2]\'',65.81
'\'(8.2-inf)\'','\'(-inf-63.9]\'','\'(17.6-19.5]\'','\'(-inf-1.3]\'',66.43
'\'(-inf-1.8]\'','\'(63.9-67.8]\'','\'(21.4-23.3]\'','\'(-inf-1.3]\'',57.63
'\'(-inf-1.8]\'','\'(-inf-63.9]\'','\'(25.2-27.1]\'','\'(-inf-1.3]\'',64.32
'\'(6.6-7.4]\'','\'(71.7-75.6]\'','\'(27.1-inf)\'','\'(-inf-1.3]\'',83.27
'\'(1.8-2.6]\'','\'(79.5-83.4]\'','\'(17.6-19.5]\'','\'(3.7-inf)\'',71.83
'\'(4.2-5]\'','\'(79.5-83.4]\'','\'(15.7-17.6]\'','\'(1.9-2.2]\'',64
'\'(7.4-8.2]\'','\'(79.5-83.4]\'','\'(11.9-13.8]\'','\'(1.9-2.2]\'',69.7
'\'(7.4-8.2]\'','\'(83.4-87.3]\'','\'(27.1-inf)\'','\'(-inf-1.3]\'',94.91
'\'(2.6-3.4]\'','\'(67.8-71.7]\'','\'(13.8-15.7]\'','\'(-inf-1.3]\'',57.12
'\'(6.6-7.4]\'','\'(83.4-87.3]\'','\'(-inf-11.9]\'','\'(1.9-2.2]\'',60.36
'\'(2.6-3.4]\'','\'(67.8-71.7]\'','\'(13.8-15.7]\'','\'(3.7-inf)\'',66.24
'\'(5.8-6.6]\'','\'(71.7-75.6]\'','\'(11.9-13.8]\'','\'(2.8-3.1]\'',75.11
'\'(5.8-6.6]\'','\'(67.8-71.7]\'','\'(23.3-25.2]\'','\'(2.8-3.1]\'',83.93
'\'(2.6-3.4]\'','\'(79.5-83.4]\'','\'(15.7-17.6]\'','\'(1.9-2.2]\'',51.63
'\'(6.6-7.4]\'','\'(63.9-67.8]\'','\'(-inf-11.9]\'','\'(-inf-1.3]\'',64.3
'\'(2.6-3.4]\'','\'(79.5-83.4]\'','\'(25.2-27.1]\'','\'(-inf-1.3]\'',73.89
'\'(7.4-8.2]\'','\'(71.7-75.6]\'','\'(17.6-19.5]\'','\'(3.7-inf)\'',91.83
'\'(3.4-4.2]\'','\'(83.4-87.3]\'','\'(19.5-21.4]\'','\'(2.8-3.1]\'',78.08
'\'(-inf-1.8]\'','\'(83.4-87.3]\'','\'(11.9-13.8]\'','\'(3.7-inf)\'',52.38
'\'(3.4-4.2]\'','\'(95.1-inf)\'','\'(19.5-21.4]\'','\'(2.8-3.1]\'',68.98
'\'(6.6-7.4]\'','\'(-inf-63.9]\'','\'(-inf-11.9]\'','\'(1.9-2.2]\'',65.6
'\'(3.4-4.2]\'','\'(79.5-83.4]\'','\'(21.4-23.3]\'','\'(2.8-3.1]\'',83.93
'\'(5.8-6.6]\'','\'(75.6-79.5]\'','\'(23.3-25.2]\'','\'(3.7-inf)\'',97.53
'\'(8.2-inf)\'','\'(91.2-95.1]\'','\'(13.8-15.7]\'','\'(3.7-inf)\'',82.55
'\'(-inf-1.8]\'','\'(95.1-inf)\'','\'(25.2-27.1]\'','\'(3.7-inf)\'',85.12
'\'(4.2-5]\'','\'(67.8-71.7]\'','\'(13.8-15.7]\'','\'(1.9-2.2]\'',61.29
'\'(6.6-7.4]\'','\'(83.4-87.3]\'','\'(19.5-21.4]\'','\'(2.8-3.1]\'',78.41
'\'(-inf-1.8]\'','\'(75.6-79.5]\'','\'(25.2-27.1]\'','\'(2.8-3.1]\'',76.14
'\'(3.4-4.2]\'','\'(75.6-79.5]\'','\'(11.9-13.8]\'','\'(3.7-inf)\'',66.99
'\'(5.8-6.6]\'','\'(91.2-95.1]\'','\'(11.9-13.8]\'','\'(2.8-3.1]\'',66.78
'\'(1.8-2.6]\'','\'(67.8-71.7]\'','\'(21.4-23.3]\'','\'(-inf-1.3]\'',56.85
'\'(4.2-5]\'','\'(91.2-95.1]\'','\'(17.6-19.5]\'','\'(-inf-1.3]\'',72.9
'\'(-inf-1.8]\'','\'(63.9-67.8]\'','\'(13.8-15.7]\'','\'(-inf-1.3]\'',46.87
'\'(5.8-6.6]\'','\'(91.2-95.1]\'','\'(19.5-21.4]\'','\'(2.8-3.1]\'',68
'\'(5.8-6.6]\'','\'(91.2-95.1]\'','\'(-inf-11.9]\'','\'(1.9-2.2]\'',69.16
'\'(3.4-4.2]\'','\'(91.2-95.1]\'','\'(11.9-13.8]\'','\'(1.9-2.2]\'',58.06
'\'(7.4-8.2]\'','\'(79.5-83.4]\'','\'(11.9-13.8]\'','\'(1.9-2.2]\'',71.31
'\'(3.4-4.2]\'','\'(75.6-79.5]\'','\'(19.5-21.4]\'','\'(1.9-2.2]\'',75.49
'\'(7.4-8.2]\'','\'(79.5-83.4]\'','\'(23.3-25.2]\'','\'(-inf-1.3]\'',85.22
'\'(7.4-8.2]\'','\'(95.1-inf)\'','\'(17.6-19.5]\'','\'(-inf-1.3]\'',91.78
'\'(4.2-5]\'','\'(71.7-75.6]\'','\'(15.7-17.6]\'','\'(3.7-inf)\'',72.01
'\'(3.4-4.2]\'','\'(91.2-95.1]\'','\'(19.5-21.4]\'','\'(2.8-3.1]\'',77.27
'\'(1.8-2.6]\'','\'(83.4-87.3]\'','\'(23.3-25.2]\'','\'(2.8-3.1]\'',83.52
'\'(2.6-3.4]\'','\'(63.9-67.8]\'','\'(11.9-13.8]\'','\'(1.9-2.2]\'',55.02
'\'(2.6-3.4]\'','\'(87.3-91.2]\'','\'(-inf-11.9]\'','\'(-inf-1.3]\'',61.6
'\'(3.4-4.2]\'','\'(67.8-71.7]\'','\'(15.7-17.6]\'','\'(1.9-2.2]\'',56.66
'\'(3.4-4.2]\'','\'(67.8-71.7]\'','\'(-inf-11.9]\'','\'(3.7-inf)\'',53.94
'\'(4.2-5]\'','\'(67.8-71.7]\'','\'(13.8-15.7]\'','\'(2.8-3.1]\'',67.73
'\'(3.4-4.2]\'','\'(71.7-75.6]\'','\'(15.7-17.6]\'','\'(2.8-3.1]\'',60.58
'\'(7.4-8.2]\'','\'(71.7-75.6]\'','\'(11.9-13.8]\'','\'(1.9-2.2]\'',70.15
'\'(5.8-6.6]\'','\'(83.4-87.3]\'','\'(13.8-15.7]\'','\'(3.7-inf)\'',75.05
'\'(5.8-6.6]\'','\'(-inf-63.9]\'','\'(-inf-11.9]\'','\'(2.8-3.1]\'',54.33
'\'(7.4-8.2]\'','\'(91.2-95.1]\'','\'(-inf-11.9]\'','\'(3.7-inf)\'',76.04
'\'(6.6-7.4]\'','\'(63.9-67.8]\'','\'(23.3-25.2]\'','\'(3.7-inf)\'',78.63
'\'(7.4-8.2]\'','\'(79.5-83.4]\'','\'(27.1-inf)\'','\'(1.9-2.2]\'',88.5
'\'(1.8-2.6]\'','\'(75.6-79.5]\'','\'(27.1-inf)\'','\'(-inf-1.3]\'',75.41
'\'(8.2-inf)\'','\'(-inf-63.9]\'','\'(17.6-19.5]\'','\'(1.9-2.2]\'',75.49
'\'(-inf-1.8]\'','\'(95.1-inf)\'','\'(25.2-27.1]\'','\'(-inf-1.3]\'',77.88
'\'(7.4-8.2]\'','\'(67.8-71.7]\'','\'(11.9-13.8]\'','\'(3.7-inf)\'',72.17
'\'(3.4-4.2]\'','\'(95.1-inf)\'','\'(19.5-21.4]\'','\'(-inf-1.3]\'',76.84
'\'(3.4-4.2]\'','\'(79.5-83.4]\'','\'(23.3-25.2]\'','\'(3.7-inf)\'',91.55
'\'(4.2-5]\'','\'(75.6-79.5]\'','\'(19.5-21.4]\'','\'(2.8-3.1]\'',75.42
'\'(7.4-8.2]\'','\'(-inf-63.9]\'','\'(25.2-27.1]\'','\'(2.8-3.1]\'',92.37
'\'(4.2-5]\'','\'(83.4-87.3]\'','\'(25.2-27.1]\'','\'(2.8-3.1]\'',91.6
'\'(7.4-8.2]\'','\'(95.1-inf)\'','\'(13.8-15.7]\'','\'(1.9-2.2]\'',89.07
'\'(-inf-1.8]\'','\'(87.3-91.2]\'','\'(13.8-15.7]\'','\'(1.9-2.2]\'',59.66
'\'(8.2-inf)\'','\'(95.1-inf)\'','\'(15.7-17.6]\'','\'(3.7-inf)\'',85.8
'\'(5.8-6.6]\'','\'(91.2-95.1]\'','\'(-inf-11.9]\'','\'(2.8-3.1]\'',75.79
'\'(2.6-3.4]\'','\'(95.1-inf)\'','\'(23.3-25.2]\'','\'(1.9-2.2]\'',85.13
'\'(7.4-8.2]\'','\'(95.1-inf)\'','\'(27.1-inf)\'','\'(2.8-3.1]\'',100
'\'(8.2-inf)\'','\'(91.2-95.1]\'','\'(19.5-21.4]\'','\'(1.9-2.2]\'',90.68
'\'(5.8-6.6]\'','\'(91.2-95.1]\'','\'(13.8-15.7]\'','\'(-inf-1.3]\'',59.97
'\'(6.6-7.4]\'','\'(-inf-63.9]\'','\'(-inf-11.9]\'','\'(-inf-1.3]\'',56.98
'\'(-inf-1.8]\'','\'(67.8-71.7]\'','\'(11.9-13.8]\'','\'(2.8-3.1]\'',55.96
'\'(4.2-5]\'','\'(63.9-67.8]\'','\'(25.2-27.1]\'','\'(3.7-inf)\'',84.77
'\'(4.2-5]\'','\'(91.2-95.1]\'','\'(21.4-23.3]\'','\'(1.9-2.2]\'',79.94
'\'(3.4-4.2]\'','\'(63.9-67.8]\'','\'(25.2-27.1]\'','\'(1.9-2.2]\'',70.04
'\'(5.8-6.6]\'','\'(95.1-inf)\'','\'(13.8-15.7]\'','\'(-inf-1.3]\'',74.27
'\'(6.6-7.4]\'','\'(-inf-63.9]\'','\'(11.9-13.8]\'','\'(-inf-1.3]\'',60.27
'\'(8.2-inf)\'','\'(71.7-75.6]\'','\'(19.5-21.4]\'','\'(3.7-inf)\'',90.11
'\'(-inf-1.8]\'','\'(-inf-63.9]\'','\'(21.4-23.3]\'','\'(3.7-inf)\'',60.61
'\'(5.8-6.6]\'','\'(63.9-67.8]\'','\'(11.9-13.8]\'','\'(3.7-inf)\'',68.24
'\'(6.6-7.4]\'','\'(83.4-87.3]\'','\'(21.4-23.3]\'','\'(2.8-3.1]\'',85.63
'\'(2.6-3.4]\'','\'(87.3-91.2]\'','\'(19.5-21.4]\'','\'(-inf-1.3]\'',71.52
'\'(7.4-8.2]\'','\'(79.5-83.4]\'','\'(17.6-19.5]\'','\'(2.8-3.1]\'',79.88
'\'(4.2-5]\'','\'(63.9-67.8]\'','\'(27.1-inf)\'','\'(-inf-1.3]\'',82.32
'\'(8.2-inf)\'','\'(95.1-inf)\'','\'(25.2-27.1]\'','\'(-inf-1.3]\'',94.29
'\'(4.2-5]\'','\'(63.9-67.8]\'','\'(13.8-15.7]\'','\'(1.9-2.2]\'',57.34
'\'(8.2-inf)\'','\'(-inf-63.9]\'','\'(23.3-25.2]\'','\'(-inf-1.3]\'',80.53
'\'(3.4-4.2]\'','\'(-inf-63.9]\'','\'(17.6-19.5]\'','\'(-inf-1.3]\'',61.53
'\'(8.2-inf)\'','\'(79.5-83.4]\'','\'(13.8-15.7]\'','\'(2.8-3.1]\'',75.38
'\'(4.2-5]\'','\'(63.9-67.8]\'','\'(13.8-15.7]\'','\'(-inf-1.3]\'',42.06
'\'(8.2-inf)\'','\'(-inf-63.9]\'','\'(17.6-19.5]\'','\'(2.8-3.1]\'',80.71
'\'(2.6-3.4]\'','\'(79.5-83.4]\'','\'(13.8-15.7]\'','\'(3.7-inf)\'',65.03
'\'(3.4-4.2]\'','\'(-inf-63.9]\'','\'(11.9-13.8]\'','\'(-inf-1.3]\'',45.06
'\'(8.2-inf)\'','\'(95.1-inf)\'','\'(13.8-15.7]\'','\'(-inf-1.3]\'',81.71
'\'(5.8-6.6]\'','\'(75.6-79.5]\'','\'(11.9-13.8]\'','\'(2.8-3.1]\'',69.98
'\'(1.8-2.6]\'','\'(91.2-95.1]\'','\'(25.2-27.1]\'','\'(3.7-inf)\'',86.06
'\'(6.6-7.4]\'','\'(91.2-95.1]\'','\'(17.6-19.5]\'','\'(1.9-2.2]\'',73.14
'\'(1.8-2.6]\'','\'(79.5-83.4]\'','\'(25.2-27.1]\'','\'(3.7-inf)\'',83.49
'\'(1.8-2.6]\'','\'(87.3-91.2]\'','\'(21.4-23.3]\'','\'(2.8-3.1]\'',76.82
'\'(-inf-1.8]\'','\'(63.9-67.8]\'','\'(23.3-25.2]\'','\'(3.7-inf)\'',77.72
'\'(2.6-3.4]\'','\'(79.5-83.4]\'','\'(27.1-inf)\'','\'(2.8-3.1]\'',84.08
'\'(5.8-6.6]\'','\'(91.2-95.1]\'','\'(25.2-27.1]\'','\'(2.8-3.1]\'',97.97
'\'(7.4-8.2]\'','\'(63.9-67.8]\'','\'(21.4-23.3]\'','\'(1.9-2.2]\'',75.5
'\'(8.2-inf)\'','\'(71.7-75.6]\'','\'(23.3-25.2]\'','\'(-inf-1.3]\'',77.87
'\'(6.6-7.4]\'','\'(87.3-91.2]\'','\'(11.9-13.8]\'','\'(2.8-3.1]\'',66.74
'\'(3.4-4.2]\'','\'(87.3-91.2]\'','\'(13.8-15.7]\'','\'(2.8-3.1]\'',68.19
'\'(5.8-6.6]\'','\'(71.7-75.6]\'','\'(13.8-15.7]\'','\'(1.9-2.2]\'',65.17
'\'(4.2-5]\'','\'(87.3-91.2]\'','\'(17.6-19.5]\'','\'(2.8-3.1]\'',77.84
'\'(7.4-8.2]\'','\'(71.7-75.6]\'','\'(25.2-27.1]\'','\'(-inf-1.3]\'',84.55
'\'(-inf-1.8]\'','\'(67.8-71.7]\'','\'(21.4-23.3]\'','\'(1.9-2.2]\'',71.19
'\'(-inf-1.8]\'','\'(75.6-79.5]\'','\'(-inf-11.9]\'','\'(-inf-1.3]\'',47.49
'\'(5.8-6.6]\'','\'(71.7-75.6]\'','\'(21.4-23.3]\'','\'(-inf-1.3]\'',65.02
'\'(1.8-2.6]\'','\'(67.8-71.7]\'','\'(27.1-inf)\'','\'(1.9-2.2]\'',76.69
'\'(4.2-5]\'','\'(63.9-67.8]\'','\'(11.9-13.8]\'','\'(2.8-3.1]\'',50.57
'\'(-inf-1.8]\'','\'(75.6-79.5]\'','\'(17.6-19.5]\'','\'(-inf-1.3]\'',63.06
'\'(6.6-7.4]\'','\'(-inf-63.9]\'','\'(-inf-11.9]\'','\'(-inf-1.3]\'',61.89
'\'(-inf-1.8]\'','\'(71.7-75.6]\'','\'(21.4-23.3]\'','\'(-inf-1.3]\'',60.07
'\'(3.4-4.2]\'','\'(87.3-91.2]\'','\'(27.1-inf)\'','\'(-inf-1.3]\'',91.29
'\'(8.2-inf)\'','\'(79.5-83.4]\'','\'(25.2-27.1]\'','\'(1.9-2.2]\'',95.81
'\'(-inf-1.8]\'','\'(83.4-87.3]\'','\'(21.4-23.3]\'','\'(1.9-2.2]\'',78.63
'\'(3.4-4.2]\'','\'(95.1-inf)\'','\'(19.5-21.4]\'','\'(3.7-inf)\'',85.15
'\'(5.8-6.6]\'','\'(63.9-67.8]\'','\'(19.5-21.4]\'','\'(3.7-inf)\'',72.74
'\'(5.8-6.6]\'','\'(75.6-79.5]\'','\'(19.5-21.4]\'','\'(-inf-1.3]\'',77.1
'\'(7.4-8.2]\'','\'(95.1-inf)\'','\'(15.7-17.6]\'','\'(2.8-3.1]\'',79.08
'\'(-inf-1.8]\'','\'(-inf-63.9]\'','\'(11.9-13.8]\'','\'(-inf-1.3]\'',47.59
'\'(6.6-7.4]\'','\'(87.3-91.2]\'','\'(27.1-inf)\'','\'(2.8-3.1]\'',94.34
'\'(-inf-1.8]\'','\'(79.5-83.4]\'','\'(-inf-11.9]\'','\'(-inf-1.3]\'',54.12
'\'(6.6-7.4]\'','\'(75.6-79.5]\'','\'(11.9-13.8]\'','\'(3.7-inf)\'',74.35
'\'(2.6-3.4]\'','\'(63.9-67.8]\'','\'(21.4-23.3]\'','\'(3.7-inf)\'',73.1
'\'(7.4-8.2]\'','\'(79.5-83.4]\'','\'(23.3-25.2]\'','\'(2.8-3.1]\'',79.04
'\'(2.6-3.4]\'','\'(75.6-79.5]\'','\'(-inf-11.9]\'','\'(-inf-1.3]\'',49.92
'\'(-inf-1.8]\'','\'(63.9-67.8]\'','\'(19.5-21.4]\'','\'(2.8-3.1]\'',68.12
'\'(7.4-8.2]\'','\'(95.1-inf)\'','\'(11.9-13.8]\'','\'(3.7-inf)\'',81.3
'\'(2.6-3.4]\'','\'(87.3-91.2]\'','\'(27.1-inf)\'','\'(-inf-1.3]\'',75.28
'\'(1.8-2.6]\'','\'(91.2-95.1]\'','\'(25.2-27.1]\'','\'(-inf-1.3]\'',69.07
'\'(-inf-1.8]\'','\'(71.7-75.6]\'','\'(11.9-13.8]\'','\'(2.8-3.1]\'',55.98
'\'(2.6-3.4]\'','\'(67.8-71.7]\'','\'(25.2-27.1]\'','\'(1.9-2.2]\'',72.51
'\'(1.8-2.6]\'','\'(95.1-inf)\'','\'(15.7-17.6]\'','\'(2.8-3.1]\'',66.3
'\'(1.8-2.6]\'','\'(91.2-95.1]\'','\'(27.1-inf)\'','\'(3.7-inf)\'',92.26
'\'(5.8-6.6]\'','\'(71.7-75.6]\'','\'(13.8-15.7]\'','\'(3.7-inf)\'',75.91
'\'(-inf-1.8]\'','\'(91.2-95.1]\'','\'(15.7-17.6]\'','\'(3.7-inf)\'',65.75
'\'(1.8-2.6]\'','\'(91.2-95.1]\'','\'(15.7-17.6]\'','\'(3.7-inf)\'',71.88
'\'(5.8-6.6]\'','\'(79.5-83.4]\'','\'(13.8-15.7]\'','\'(3.7-inf)\'',72.23
'\'(2.6-3.4]\'','\'(-inf-63.9]\'','\'(25.2-27.1]\'','\'(1.9-2.2]\'',72.48
'\'(3.4-4.2]\'','\'(79.5-83.4]\'','\'(13.8-15.7]\'','\'(-inf-1.3]\'',60.7
'\'(-inf-1.8]\'','\'(-inf-63.9]\'','\'(11.9-13.8]\'','\'(2.8-3.1]\'',56.08
'\'(7.4-8.2]\'','\'(83.4-87.3]\'','\'(27.1-inf)\'','\'(2.8-3.1]\'',92.93
'\'(6.6-7.4]\'','\'(67.8-71.7]\'','\'(-inf-11.9]\'','\'(3.7-inf)\'',58.27
'\'(6.6-7.4]\'','\'(-inf-63.9]\'','\'(19.5-21.4]\'','\'(2.8-3.1]\'',82.95
'\'(2.6-3.4]\'','\'(67.8-71.7]\'','\'(21.4-23.3]\'','\'(3.7-inf)\'',80.45
'\'(2.6-3.4]\'','\'(-inf-63.9]\'','\'(23.3-25.2]\'','\'(1.9-2.2]\'',65.08
'\'(1.8-2.6]\'','\'(79.5-83.4]\'','\'(19.5-21.4]\'','\'(1.9-2.2]\'',70.78
'\'(-inf-1.8]\'','\'(83.4-87.3]\'','\'(19.5-21.4]\'','\'(-inf-1.3]\'',70.05
'\'(6.6-7.4]\'','\'(-inf-63.9]\'','\'(15.7-17.6]\'','\'(1.9-2.2]\'',70.65
'\'(6.6-7.4]\'','\'(75.6-79.5]\'','\'(13.8-15.7]\'','\'(1.9-2.2]\'',70.41
'\'(1.8-2.6]\'','\'(63.9-67.8]\'','\'(25.2-27.1]\'','\'(-inf-1.3]\'',69.15
'\'(6.6-7.4]\'','\'(91.2-95.1]\'','\'(27.1-inf)\'','\'(2.8-3.1]\'',100
'\'(7.4-8.2]\'','\'(79.5-83.4]\'','\'(17.6-19.5]\'','\'(3.7-inf)\'',83.4
'\'(-inf-1.8]\'','\'(71.7-75.6]\'','\'(21.4-23.3]\'','\'(3.7-inf)\'',71.13
'\'(8.2-inf)\'','\'(79.5-83.4]\'','\'(19.5-21.4]\'','\'(2.8-3.1]\'',90.66
'\'(6.6-7.4]\'','\'(95.1-inf)\'','\'(13.8-15.7]\'','\'(-inf-1.3]\'',73.28
'\'(2.6-3.4]\'','\'(67.8-71.7]\'','\'(25.2-27.1]\'','\'(2.8-3.1]\'',80.55
